KPOINTS generated by db_to_vasp
0
Gamma
6 4 3
0 0 0
