Cr
 1.0000000000000000
     8.5353406389999993    0.0000000000000000    0.0000000000000000
     0.0000000000000000   11.3804541859999997    0.0000000000000000
     0.0000000000000000    0.0000000000000000   14.2255677320000000
 Cr 
 117
Cartesian
  1.4921296809430420  1.3771073222577572  1.3117715497493745
  1.3461461443114280  4.2646735546988248  1.4385361003649235
  2.8955279642558098  2.8549147164225577  2.7590651389086247
  2.7672541275537013  5.6352411502277855  2.8739185042172672
  8.4689088373565671  5.5921007447242737  2.8818452921447157
 -0.0012582015699148  2.9917180540125070  2.7847680635941030
  4.1483602608886363  4.2060750487720968  6.8792741035509106
  2.9682160301855207  0.0548269713032246  5.7495810164958234
  4.4275026142558458  1.2910298710119725  1.5015090227419139
  4.2824844292259217  4.1481989468958975  1.3479964915758371
  7.3900863370576504  1.2904702511882782  1.1418307431530952
  7.1754670633518698  4.2279932498636841  1.4041049330836535
  5.8846562521672245  2.7598928877037765  2.8312580799311400
  5.5513431541880962  2.8586467901805044  5.6591522010436650
  8.3533034635806089  5.7575629711508753  5.6966615650558472
 -0.0149966258162260  2.9812699912457168  5.5565581549239162
  0.0790491939520836  5.7715879143983129  0.0224223680293560
  4.3397631463396547  1.2820807022583485  4.0853790072846410
  1.4318422340273858  1.4338610988652707  4.1683969131678342
  1.4233398670893909  4.3594336914509535  4.2112852674448487
  2.7403990289425848  2.8386769063591957  5.7130212989950184
  2.7899428655570744  5.6440328706207872  5.6327690297245976
  4.2573419222605224  4.2108100718145076  4.1744964482751490
  8.5310144180762766  0.0413412959587574  5.6577334886932373
  1.3067722946861386  4.3263855533191560  7.0568881921142337
  4.2730896615675089  1.5444728610138596  7.1276596849060061
  5.6534229159135370 -0.0305198352551460  5.5960767900258306
  6.9465824550420043  4.3380274699521069  6.9514139524126053
  5.5733095158016681  5.6480323958671095  5.5640074670052524
  7.0158964765381810  4.3402159394821522  4.2699362957329301
  7.1553100011831523  1.3180569437962770  4.0127243224500120
  1.3775773785650731  1.5060868568885326  6.9995603141903882
  6.9741048112547395  1.4584560708260537  6.9947048475182054
  1.2237716520744562  1.4377843371129035  9.7406090476429465
  1.4243271315991879  4.2618623421299455  9.9359454348337657
  2.8522700611472129  2.9361374162863196  8.5321032190441706
  5.7031726315522198  0.0058018231070042 11.3597840812885753
  4.2660721542000770  4.2525830009774115  9.9638867100673920
  4.2328290899312497  1.5059587382546067  9.9979607276177411
  0.0457420801168680  2.8437278169372679  8.6195619201560323
  7.0915376049649712  1.5032410960310698  9.9839163426125044
  5.6387521993541716  2.9337054561157525  8.5408459287166600
  7.1231689528414606  4.2575910635787251  9.8041344626009472
  5.6206369674080614  5.6342733090519905  8.5371878625661139
  2.8814739155280589  5.6799897349169850 11.3077952877223495
  8.4867260694634918  2.8668612880045177 11.5275935811123258
  8.4905487145853051  5.4543238876283171 11.2442381913304335
  2.6781819087684156  2.8248196163195374 11.3602338484162093
  1.1999914385902881  1.3909685277867316 13.1909795862847563
  1.4228639761811495  4.2686733411204818 12.8117917985725409
  4.1391424789881706  1.4774819738721847 12.7830937934793525
  5.6653445021313429  2.7901346812877059 11.5628871035802359
  7.1054131097400193  1.4518615036189557 12.7994269915080068
  0.0526932101875544 11.2444619252318141 11.2931135210752487
  4.2407926652187111  4.2333434138470887 12.8646847224918002
  7.2049697718331220  4.2122322936230896 12.8742801284712556
  2.9319318332147599  0.1548953427010775  8.4815731228613860
  5.8438843853044506 11.3006858914691204  8.6571732800514631
  2.6765359455955027  2.8796897867035867  0.0139224980676174
  5.6746659548863772  2.8203442739194631  0.0167572838127613
  1.3784773825943470  7.1210827604389193  1.4183551546084880
  1.3017584075570106  9.9655406412363057  1.4231038248360157
  2.7334494073164461  8.3896687236714360  2.8777624801880122
  4.2818177041673664  9.7781677832341192  1.4635907917392255
  8.4368904570281504  8.4386826960802086 14.0927102322614193
  5.6907314720857141  5.5716555249023436  2.7206589454241099
  5.5181607819342613 11.2913594010853764 14.1288957053661353
  4.2425365738034246  7.0678197795224191  1.3798193396270275
  8.5137288048589230  8.4994308419191835  2.8308195227611064
  7.0572879504752155  7.0810042478704451  1.4194034607887267
  7.0544807950583843  9.8952591987526421  1.4765521279400586
  5.6961129653631151  8.5472915608531235  2.8727825048443676
  5.7389036590188738  8.6031044290471073 14.1478051016610866
  5.7639124044620988 11.3232270606881382  2.7756933308857681
  4.3393803609097006  9.8244166562661537  4.3635250778052210
  4.1706982814252376  6.9527977518272399  4.1899915623173118
  1.4574272384560107  7.0739620452880860  4.3239795507755874
  1.5400310679823159 10.0475131644278761  4.3872420335811375
  2.7036157044994833  8.4084410411760206  5.7678850721955301
  2.8448134637427329 11.2995780261111261  2.8047060964211075
  7.1473237565153838  9.9475961055448643  4.3134717792594435
  8.4430139875096089  8.4887122085389493  5.6158381500339507
  7.1402706577998396  6.9523040199798345  4.2867888756471872
  7.0368028857344385 10.0437191224974391  7.1797983470189575
  5.6518339321511988  8.4049086772215365  5.5685844423836466
  4.2416035588186976  9.9398645685952900  7.1583981756627564
  5.6361555562162398  5.6258033783781531 14.1559257346692302
  2.8296377154213190 11.2529309487795821  0.1181298264813423
  1.4192022657826542  7.1029397147345543  9.7992134592604643
  1.5114332030725479  9.9561074524903290  9.8977144362348319
  2.8294890796327592  8.4702215991950034  8.5081794019353385
  4.3500099797499177  9.8826299195766456 10.0587435966807597
  2.7027751320612432  0.0025231457453966 11.3740102686119080
  4.1702771218240260  7.0585251484133300  9.9926412900531290
  2.8979152478840948  5.6485140140831467  8.5952937044870854
  5.7085245333063606  8.5216218102979653 11.3902309405958651
  1.2807264317870140  9.9224035654664036  6.9886127522242072
  8.5021169729137416  8.6782698189042513  8.5664534672605992
  8.4468174761343011  5.7030232309699063  8.4816216789162162
  5.8187774133016168  5.6407523367568855 11.3566468565624206
  7.1378595841646195  7.0802105125710364  9.8944123876822001
  5.6902913051030044  8.4508508519625671  8.6237418962202970
  7.1835575475925211  9.8545913427352900 10.0318532296168801
  0.0031309823909402  0.0894983161538839  8.5085873591297858
  7.1062610339605810  7.0737989058113095 12.7638553804850581
  4.2342396745252611  6.9574937253010276 12.7993382572004197
  1.4441429020786285  7.1003084540176395 12.6905198251974589
  1.6578462427359819 10.0132209142547843 12.7595149467074869
  2.8829452322173119  8.4925795820009711 11.4647336687982087
  4.2682678606390949  9.9613848387002939 12.7868537938767677
  7.1696648170650006 10.0204017703437813 12.7777751363599297
  0.1141706052374840  8.3772452661126859 11.2940722864913941
  2.7792019954085352  8.6422567520084979 14.1502741847085947
  2.8005745804382860  5.7539715841227768  0.0381146509617567
  4.1710533184352521  7.0851060049191119  7.0107384343039989
  7.0881801520257817  7.1980419320225719  7.1973982498775424
  1.2301856846511363  7.2309429172033068  7.2044671070677042
