V  Zr Ti W  Cr
 1.0000000000000000
    13.0197981209999991    0.0017658650000000   -0.0018557850000000
    -4.3382706090000003   12.2715017240000002    0.0033302560000000
    -4.3422833799999996   -6.1342783819999998   10.6310263569999996
 V   Zr  Ti  W   Cr 
 114   1   4   1   4
Cartesian
 -4.2976828529325761 -6.0995528176183198 10.6087200734836333
 -5.1538146882164479 11.3046848028781159  1.9751177486563596
 -2.6367750725498991 -3.6581139268398446  6.4252740982915935
 -3.4753484454864041 -4.8971110832287437  8.5061875844882682
 -0.8294869981431451  2.4959095460866139 -0.0051094394514292
 -1.6960960569682146  1.2327566969147066  2.1286787226377495
 -2.5993703848972030  0.0899803770288905  4.2322090264310503
 -3.4645174305036082 -1.1792487315974745  6.3818072464501672
 -4.3242374861397614 -2.4214090539690227  8.4969749978714155
 -5.9625654305062401 -1.2117602601497481 10.6252540097946735
 -3.4792017358572309  2.4495268258163474  4.2996872684219909
 -4.3218763898790860  1.2406534401008114  6.3827119510047501
 -5.1780048827036280  0.0453734257598906  8.5043431301237966
  9.6258745315002638  6.1637546418321385  2.0869755184095200
 -5.1690103255927786  3.6531902708017543  6.4122952940654914
 -6.0555179747292058  2.5021931021306538  8.4718837040058155
 -3.4922455377071002  9.8915070654275681  0.0407624285832201
 -5.2171779858884371  7.3240615666527580  4.7279668360748497
 -6.1845539559482354  6.0399385318464436  6.3905215429827420
 -6.9601291416984381  4.9051148781380522  8.5127476816250063
  2.6340719917668745  0.0273187750581098 -0.0255505368731930
  1.8094864181857209 -1.1240627438362014  2.1478450825088604
  1.1181890454423240 -2.2098985619004767  4.4866054723035234
 -0.8671643335788315 -4.8857652812843160  8.4525091159782129
  1.7845049228641849  2.4836028975906825 -0.0106968131608326
  0.9494616568501176  1.2852378146486534  2.1191488143170174
  0.0495873537669557  0.1169184753712632  4.2691569766172783
 -0.8317643572240477 -1.1515363949738084  6.4468290624246540
 -1.7507588166639079 -2.4328526059502855  8.5108466159333194
  0.9168098071272353  4.9260695977505673 -0.0092570215200170
  0.1020965076982265  3.7402609909207154  2.0708836411226876
 -0.8148005432215711  2.5049129427307011  4.2544982799627142
 -1.7102192813234720  1.2699627174104886  6.3889736002357811
 -2.5971891870977171  0.0256106137614976  8.5130795551584839
  0.0738007131297699  7.3936362233917228  0.0433559558573284
 -1.6861768783203777  4.9581293131063946  4.2629802134067241
 -2.5558168004534809  3.6835880800856060  6.4120064988811221
 -3.4482294070091122  2.4765688413390587  8.5240914992246264
 -0.8758029347077217  9.8547925530377096  0.0148146197570524
 -1.5863439516717501  8.6675195558545095  2.1157928875011751
 -3.4269612595407386  6.1494237700688235  6.4831529726121593
 -4.3412170217364379  4.9095459785800415  8.5248895312261865
  5.2077518612010856  0.0369231209985987 -0.0093054995151438
  4.3676993019184946 -1.1678902954059098  2.1070720279314274
  3.5371689813971514 -2.3960400053374671  4.2600342353396767
  2.6611238598436429 -3.6283540659878906  6.4611907395953665
  1.7539838690195451 -4.9113005682261397  8.5341793159356509
  4.3475014565377164  2.4698291538661827 -0.0089868750053073
  3.5358500790008343  1.2940968149150887  2.1063567884722656
  2.6704193046228308  0.0806163705502613  4.2325485943551930
  1.7991759298778254 -1.1184248420554990  6.4429692330971617
  0.8594134952198028 -2.4503095580780281  8.4957401926094747
  3.4703932222612552  4.9166036278746770 -0.0116727126022531
  2.6893923385060963  3.7377128754553648  2.1300323367989886
  1.8306819649190920  2.4656423979355413  4.2517072729598713
  0.8933709659181372  1.3156491575636620  6.3867491332704871
 -0.0162456004142691  0.0559368161416998  8.5045846232724731
  2.6024580139181084  7.3902289067813918 -0.0034355613168425
  1.7518883045229288  6.1885158760526489  2.0909978815762988
  0.0255516203981699  3.7005647950596661  6.4226403040074569
 -0.8732430151786330  2.5039634766916152  8.5204958143008600
  1.7457125184763187  9.8652672786759812  0.0089167989931528
  0.9147806883521976  8.6486949200398655  2.1243814949012809
  0.0526468318439128  7.4351576041440062  4.2003182617080048
 -0.8103472379928875  6.1659464630592087  6.3856382065383102
 -1.7271277116140415  4.9236469482941985  8.5106545668066733
  7.7965014241593078  0.0328368469876581  0.0101689017513966
  6.9575890272582903 -1.1676725233972547  2.1317125511065376
  6.0933432624675818 -2.3995194356406948  4.2485901048956745
  5.2454010292628270 -3.6326262577673027  6.3881187755968289
  4.3584722982628552 -4.8893837782482681  8.5056860260643870
  6.9402402580220466  2.4603612725707547 -0.0159995263530004
  6.0955449797182713  1.2970500072205267  2.1345956629964227
  5.2657066196544760  0.0775791335085806  4.2473896484531357
  4.4215687236366588 -1.1679158311153279  6.3840804580455766
  3.5279789592322803 -2.4387424415052492  8.5054317949520399
  6.0705194828410143  4.9051599925024725 -0.0786826087674343
  5.2480893503135562  3.7644465381593641  2.1042661463786265
  4.3823853384076656  2.4922621358997659  4.2472578974886082
  3.5232577299544743  1.2941791567619632  6.3807230520387481
  2.6162414206313391  0.0205976738985582  8.4618197169465770
  5.1853622788595137  7.3926685744258780 -0.0381948447541521
  4.3562168254835596  6.2014532110120006  2.1087839413579093
  3.6686156936108802  4.9616164883487874  4.2587856720727366
  2.6491459971865154  3.7209257691609361  6.3808918543794624
  1.7444883440947860  2.4997423600492183  8.4953160596305519
  4.3324442229153384  9.8819039768350869 -0.0060800054407233
  3.4575372352824365  8.6344089616642812  2.1201669796192091
  2.6603466801916378  7.3981707328562116  4.2582164518838264
  1.7850634467015272  6.1962452830131154  6.4305099179646978
  0.8791196885527771  4.9491272642460409  8.5006713993020444
  6.0626357086013654 -6.0981813638199531 10.6221620565953589
  9.5378872737668008 -1.1813360513734583  2.0967774728082911
  8.6643939717841612 -2.4569446283238210  4.2455532002534353
  7.7898176619869997 -3.6238413639098868  6.3941688704143864
  6.9451364187954647 -4.8633919147156783  8.5172586116151763
  5.2002010696723184 -3.7016034069065893 10.5722538696650474
  8.6639934543422132  1.2645977195994231  2.1330797217511401
  7.8282671174798768  0.0447186611276420  4.2344823749124174
  6.9732466396073960 -1.1777865884785255  6.3639538955611563
  6.1175353596077358 -2.4162706305280275  8.5032855524869539
  8.7278913243211900  4.9212114919231489 -0.0252292403467480
  7.7894145225933720  3.7203831534806766  2.0669129918427847
  6.9265120316136581  2.5610266623334699  4.2494505566727669
  6.1041545554205587  1.2675764014364741  6.3672754580482822
  5.2224860317880681  0.0049983640725036  8.4451657280972281
  7.7611728321319182  7.3901424863831719 -0.1044859237473779
  6.9821857194152974  6.1739545980240589  1.9568761487270954
  5.2083942102705345  3.6972994384549254  6.3709046799558671
  4.3446075434567009  2.4796404839816431  8.5427359394161790
  6.8882627507882352  9.8886943566801619 -0.0330914846800827
  5.9150017690365804  8.5448727735486472  1.9957526100396714
  4.2989665774074508  6.2042433417190566  6.3824752305975840
  3.4755618401631567  4.9153828716698431  8.5181994359058297
 -1.5339848249934702 -2.4906474060406696  4.0779785000115822
 -2.5585560316875173  3.6692196138110189  2.1052143119106499
 -6.8727522060371848  1.2322302822535831 10.5735386948821954
 -2.5818311385268813  7.4695416216136445  4.3054101396778535
  0.9608769022760033  4.9439155394259835  4.2574708875794176
 -4.2876867668232306  4.9608509956578537  4.2451247450464447
 -6.8466783438230934  5.2665465130695948  4.0575945527754582
  0.0939585334949346 -3.5684288797758188  6.5283094125322307
 -0.8458450805721708  6.1940127877155566  2.1290393038177320
  5.1708946751306284  7.4526000290022640  4.2646152769554186
