V  Zr Ti W  Cr
 1.0000000000000000
    13.0197981209999991    0.0017658650000000   -0.0018557850000000
    -4.3382706090000003   12.2715017240000002    0.0033302560000000
    -4.3422833799999996   -6.1342783819999998   10.6310263569999996
 V   Zr  Ti  W   Cr 
 114   1   4   1   4
Cartesian
 -4.3192899999999996 -6.1081899999999996 10.6199200000000005
 -5.1214599999999999 11.0870200000000008  2.0214200000000000
 -2.6101999999999999 -3.7143000000000002  6.4377899999999997
 -3.4414400000000001 -4.8940400000000004  8.4994200000000006
 -0.8580400000000000  2.4903499999999998  0.0060200000000000
 -1.6950000000000001  1.2226500000000000  2.1135100000000002
 -2.6548300000000000  0.2080800000000000  4.2571599999999998
 -3.4885100000000002 -1.1599800000000000  6.4330600000000002
 -4.3276700000000003 -2.4245100000000002  8.5117100000000008
 -5.9834500000000004 -1.2134400000000001 10.6230200000000004
 -3.4880300000000002  2.4751099999999999  4.3133299999999997
 -4.3319000000000001  1.2513700000000001  6.4058799999999998
 -5.1958799999999998  0.0274400000000000  8.5180500000000006
  9.4617599999999999  6.2191900000000002  2.1451600000000002
 -5.1783000000000001  3.6554400000000000  6.4754699999999996
 -6.0767899999999999  2.5114500000000000  8.4701199999999996
 -3.4837799999999999  9.8537300000000005  0.0344500000000000
 -5.2679799999999997  7.3903900000000000  4.2727199999999996
 -6.1784600000000003  6.0689500000000001  6.2611800000000004
 -6.9339700000000004  4.9407399999999999  8.4883199999999999
  2.6283300000000001  0.0136200000000000 -0.0175400000000000
  1.7732500000000000 -1.1996400000000000  2.1215700000000002
  0.9675100000000000 -2.4071799999999999  4.2691499999999998
 -0.8548400000000000 -4.8777499999999998  8.4632000000000005
  1.7608100000000000  2.4740000000000002 -0.0049600000000000
  0.9087200000000000  1.2628900000000001  2.1182799999999999
  0.0516200000000000  0.0843000000000000  4.2554400000000001
 -0.7920900000000000 -1.1777100000000000  6.4946799999999998
 -1.7279199999999999 -2.4384500000000000  8.5073799999999995
  0.9097600000000000  4.9303299999999997  0.0013500000000000
  0.1047400000000000  3.7578100000000001  2.1019999999999999
 -0.8083200000000000  2.5233200000000000  4.2622799999999996
 -1.7025300000000001  1.2795500000000000  6.4081799999999998
 -2.5918800000000002  0.0233700000000000  8.5268800000000002
  0.0561700000000000  7.3737199999999996  0.0507800000000000
 -1.6024900000000000  4.9204200000000000  4.2848699999999997
 -2.5544099999999998  3.7250700000000001  6.3988899999999997
 -3.4362599999999999  2.4852799999999999  8.5334199999999996
 -0.8636800000000000  9.8367400000000007 -0.0016300000000000
 -1.6943900000000001  8.6122499999999995  2.1359100000000000
 -3.5114600000000000  6.1679599999999999  6.4318299999999997
 -4.3319599999999996  4.9427300000000001  8.5118899999999993
  5.2062999999999997  0.0220600000000000 -0.0149000000000000
  4.3431699999999998 -1.1968399999999999  2.1049600000000002
  3.4797199999999999 -2.4308299999999998  4.2627600000000001
  2.5724399999999998 -3.6415799999999998  6.4276400000000002
  1.7289600000000001 -4.8920300000000001  8.5126399999999993
  4.3370199999999999  2.4679300000000000 -0.0145300000000000
  3.4953900000000000  1.2570100000000000  2.0912799999999998
  2.6204100000000001  0.0198200000000000  4.2532399999999999
  1.7514500000000000 -1.1952900000000000  6.4007699999999996
  0.8589800000000000 -2.4664400000000000  8.4882799999999996
  3.4887000000000001  4.9016500000000001  0.0012700000000000
  2.6853600000000002  3.7026300000000001  2.1235300000000001
  1.7958499999999999  2.3991199999999999  4.2634499999999997
  0.9050100000000000  1.2559899999999999  6.3986700000000001
  0.0218200000000000  0.0130500000000000  8.5231499999999993
  2.6192600000000001  7.4002800000000004 -0.0078100000000000
  1.7509200000000000  6.2003899999999996  2.0806300000000002
  0.0514000000000000  3.6975899999999999  6.4285199999999998
 -0.8505200000000001  2.4910399999999999  8.5202399999999994
  1.7383700000000000  9.8496299999999994  0.0061600000000000
  0.8921200000000000  8.6344700000000003  2.1267499999999999
  0.1040600000000000  7.3971900000000002  4.2117899999999997
 -0.8348100000000001  6.1674800000000003  6.3667800000000003
 -1.7266200000000000  4.9352999999999998  8.5019899999999993
  7.8153800000000002  0.0252800000000000 -0.0070000000000000
  6.9409099999999997 -1.1698500000000001  2.1068600000000002
  6.0665100000000001 -2.4036800000000000  4.2562600000000002
  5.2121100000000000 -3.6560199999999998  6.3824399999999999
  4.3299500000000002 -4.8829300000000000  8.4900699999999993
  6.9266899999999998  2.4730200000000000 -0.0083200000000000
  6.0771100000000002  1.2577600000000000  2.1271800000000001
  5.2375900000000000  0.0477500000000000  4.2532600000000000
  4.3429300000000000 -1.2062200000000001  6.3989700000000003
  3.4716700000000000 -2.4348299999999998  8.5230599999999992
  6.0763900000000000  4.9285100000000002  0.0252900000000000
  5.2276999999999996  3.6996400000000000  2.1307600000000000
  4.3260800000000001  2.4028399999999999  4.2603499999999999
  3.4956200000000002  1.2578199999999999  6.4234299999999998
  2.6196600000000001  0.0048300000000000  8.5348000000000006
  5.2241400000000002  7.3788900000000002  0.0145700000000000
  4.3167099999999996  6.2172700000000001  2.1141299999999998
  4.1448700000000001  4.9532800000000003  4.2707699999999997
  2.6759300000000001  3.7033299999999998  6.4090299999999996
  1.7608800000000000  2.4780300000000000  8.5249299999999995
  4.3486900000000004  9.8589300000000009  0.0003900000000000
  3.4727800000000002  8.6607800000000008  2.1267399999999999
  2.7016200000000001  7.4143100000000004  4.2642300000000004
  1.7845400000000000  6.2085400000000002  6.4595399999999996
  0.8818800000000000  4.9404199999999996  8.5063800000000001
  6.0728099999999996 -6.1156199999999998 10.6210500000000003
  9.5203199999999999 -1.1576900000000001  2.0781900000000002
  8.5700800000000008 -2.4218299999999999  4.2573699999999999
  7.8137499999999998 -3.6153100000000000  6.3869499999999997
  6.9375700000000000 -4.8722500000000002  8.5104699999999998
  5.2079700000000004 -3.6755499999999999 10.5817800000000002
  8.6751799999999992  1.2621500000000001  2.1224799999999999
  7.7960900000000004  0.0571700000000000  4.2531400000000001
  6.9432400000000003 -1.1827399999999999  6.3995199999999999
  6.0834299999999999 -2.4289200000000002  8.5060300000000009
  8.6800700000000006  4.9397399999999996  0.0253300000000000
  7.7710699999999999  3.6604199999999998  2.0579900000000002
  6.8494000000000002  2.5946699999999998  4.2618000000000000
  6.0775300000000003  1.2616400000000001  6.3730900000000004
  5.1863700000000001 -0.0158400000000000  8.4632299999999994
  7.7701200000000004  7.3888999999999996  0.0581600000000000
  6.8214100000000002  6.0737899999999998  2.2677700000000001
  5.2439799999999996  3.7052600000000000  6.3804400000000001
  4.3400200000000000  2.4741700000000000  8.5266599999999997
  6.9477399999999996  9.8388200000000001  0.0086600000000000
  6.0554500000000004  8.5515500000000007  2.0885799999999999
  4.3285499999999999  6.2211900000000000  6.4168500000000002
  3.4902500000000001  4.9080500000000002  8.5131200000000007
 -1.7502700000000000 -2.3409900000000001  4.2591200000000002
 -2.5809299999999999  3.7474599999999998  2.1436099999999998
 -6.9460699999999997  1.2416900000000000 10.6171900000000008
 -2.5755200000000000  7.3362200000000000  4.2778400000000003
  1.1443200000000000  4.9338300000000004  4.2815200000000004
 -4.4459400000000002  4.9031599999999997  4.2781799999999999
 -4.3258400000000004  8.5492299999999997  2.1274899999999999
  0.0063500000000000 -3.6995800000000001  6.4057599999999999
 -0.7980400000000000  6.1646999999999998  2.1586300000000000
  5.1628299999999996  7.4301300000000001  4.2639699999999996
