V  Zr Ti W  Cr
 1.0000000000000000
    13.0197981209999991    0.0017658650000000   -0.0018557850000000
    -4.3382706090000003   12.2715017240000002    0.0033302560000000
    -4.3422833799999996   -6.1342783819999998   10.6310263569999996
 V   Zr  Ti  W   Cr 
 114   1   4   1   4
Cartesian
 -4.3175501842170867 -6.1215021992005010 10.6301713706599941
 -5.1625660533350963 11.1466197546451511  2.0336923431094163
 -2.6791570121232429 -3.6989955017665426  6.4565645716927547
 -3.4706374132414042 -4.9112621158140053  8.5054055477832868
 -0.8445413894813436  2.4873718139265586  0.0140426853831781
 -1.6918859351080799  1.2103036856016560  2.1288535441300964
 -2.6242655405330462  0.1433835776288332  4.2459828428166011
 -3.4820803298591900 -1.1683304320583339  6.4005610625875056
 -4.3311433049615031 -2.4256210969044680  8.5074324022008803
 -5.9757012355126049 -1.2088951982533205 10.6187048491274521
 -3.4799002979811577  2.4532272600590188  4.3072317470434545
 -4.3369764369690271  1.2382836387761409  6.3958831922865897
 -5.1962236653877945  0.0404137082784209  8.5286563535885040
  9.4669120535643270  6.1112441331851546  2.1487090376597990
 -5.1476141154092909  3.6005267422631313  6.4720896373855821
 -6.0799803859990487  2.4876164591768664  8.5121303402162507
 -3.5092968673136458  9.8557981119726890  0.0557799621183115
 -5.2928390055879397  7.2736386167247584  4.6133862399742069
 -6.3490547019742030  5.8160519748925648  6.1770550527764820
 -6.9627376840570543  4.8980674264260093  8.5292000857895847
  2.6189896832344606  0.0098780748845213 -0.0276239670970170
  1.7756382224282548 -1.1822114230688614  2.1475292580287548
  1.0131619428017529 -2.3306603350666939  4.4119383920294526
 -0.8746466987254194 -4.9060910676441418  8.4035334393740815
  1.7670847341787521  2.4652955562418786 -0.0191112725971321
  0.9184504946804490  1.2552791207070542  2.1215211958194442
  0.0432493079787788  0.0776102539952825  4.2688055991820608
 -0.8120475670289913 -1.1346134647672350  6.4892205455887009
 -1.7501592809501034 -2.4431438335392173  8.5019507486433081
  0.9104922628998648  4.9238877193668165 -0.0072566438713038
  0.0939320144445006  3.7494807747554368  2.0820947478968450
 -0.8161197402810694  2.5106940147433021  4.2529153458067643
 -1.7130580648794780  1.2739864246125658  6.3993288241284079
 -2.6082307354069423  0.0234158426043734  8.5261368253915393
  0.0440648705298573  7.3807906898752007  0.0652506305246779
 -1.6727590062292852  4.9476533506658802  4.2866632234829600
 -2.5477335480095329  3.6952765451633853  6.4062547875672280
 -3.4571133403243213  2.4773584997300060  8.5469328216202154
 -0.8864218006024819  9.8320607026644922  0.0248742403020391
 -1.6749795709504223  8.5978359809982035  2.1587238346411604
 -3.4503089293517029  6.1255911318450167  6.4762386532399754
 -4.3503730510824310  4.9097209636285211  8.5224907249827151
  5.1939387487912638  0.0153769600217319 -0.0179703359005870
  4.3413833769512840 -1.1937256118512500  2.1108029370994976
  3.4915535212367454 -2.4295295318110997  4.2644563299507201
  2.6480960805102534 -3.6294593464137854  6.4549103215473949
  1.7486562437545154 -4.9198380053564232  8.5161019145414585
  4.3282939289491216  2.4441845353472309 -0.0252044901955281
  3.4993971466619618  1.2578702450207000  2.0893628914903726
  2.6312666341478326  0.0353409928857811  4.2398028540512191
  1.7892548836097766 -1.1402366123988368  6.4308502650713901
  0.8637701084157473 -2.4590784158733445  8.4987822864896927
  3.4668912001402550  4.8867392291324450 -0.0091465879944360
  2.6632269093797638  3.7027128758786398  2.1280598403912521
  1.7973284447461289  2.4425658514491917  4.2548347156782151
  0.9001388711502103  1.2912890486554891  6.3957666393382642
 -0.0064721030930179  0.0416912027780546  8.5206717729473933
  2.6051330819385061  7.3928688316354831 -0.0088316233410907
  1.7595038141808041  6.1871893581668171  2.0908775608152212
  0.0320281936439545  3.6911952499398790  6.4306728562142190
 -0.8694835410114342  2.4965760863374995  8.5288023841663190
  1.7369195046815207  9.8512108414764832  0.0214975586611861
  0.8982731867802728  8.6387673846664246  2.1295962359101601
  0.0654231521259678  7.4177004517693259  4.2002190417957825
 -0.8159340607195587  6.1614837190916685  6.3764446697529760
 -1.7276438649387416  4.9176422964508024  8.5128233816576611
  7.8008663540487788  0.0185934472801985  0.0016790116090815
  6.9436299802570414 -1.1707556166817927  2.1238507474617134
  6.0863470572851233 -2.4046745638952114  4.2475639430966545
  5.2347326820108622 -3.6411783490543703  6.3851603143332536
  4.3506381227088164 -4.9001007223272373  8.5040647027753717
  6.9183953611761178  2.4364394757664809 -0.0219239480031673
  6.0697332797756554  1.2526853157657161  2.1311156681573022
  5.2473576947812264  0.0488307036626625  4.2493121921066361
  4.3848645327743441 -1.1825731881933286  6.3898457904202441
  3.5109523458958574 -2.4397825987442250  8.5162732544769444
  6.0510336202300579  4.8776134934539916 -0.0224447438954702
  5.2002808804308831  3.6726021532339912  2.1412866983172840
  4.3146682495030451  2.3883094833046510  4.2650576838688528
  3.5060289837241649  1.2731095464687443  6.4135421187436021
  2.6206741703499397  0.0234446000385089  8.5194293367894502
  5.1891026415645225  7.3456178150114830 -0.0118275793350574
  4.2844535416993947  6.1755885207952623  2.1111701061553996
  3.9034755270242627  4.8994397474901508  4.2877488136863580
  2.6363064736033963  3.7088951409723725  6.3953672311534042
  1.7525817548709715  2.4918773996653329  8.5285320915121297
  4.3414806469291154  9.8617629325233089 -0.0001511947157354
  3.4613221133129533  8.6453065969977789  2.1318033652417263
  2.6884449679280125  7.3919748157778375  4.2659551545100491
  1.7729343919027074  6.1871538748338670  6.4416762653067927
  0.8858640569178028  4.9320065079076310  8.5214755849194574
  6.0732493802530785 -6.1217600673271306 10.6358556648575817
  9.5288454371646019 -1.1675319243701539  2.1026593855628226
  8.6164248983078799 -2.4436176135901726  4.2623723079181906
  7.7868760041855793 -3.6080816985585016  6.3927847897993777
  6.9404135748133386 -4.8744398595583025  8.5331178329670294
  5.2050258244189598 -3.6980182608310348 10.5723575813406896
  8.6662883313595991  1.2503642742848529  2.1293023529281037
  7.8111864463089544  0.0446097162823726  4.2465543711431799
  6.9512037860847800 -1.1789301229288940  6.3832195179776159
  6.1037449993112167 -2.4212022877967527  8.5097860881562735
  8.6669942916558593  4.8938528315453214 -0.0227986939824618
  7.7963683221913458  3.6110176640728926  2.0549759608018028
  6.8339502613574892  2.6445990659249667  4.2814274140787907
  6.0909839024045995  1.2487429332693933  6.3798393179289734
  5.2101333518259043  0.0005151083075684  8.4736487982522135
  7.7213551864407535  7.3170747475847682  0.0527488256617984
  6.7661440950234688  5.9195203839308013  2.2748975103671634
  5.1918653210161638  3.6530992989799436  6.3927714841323873
  4.3413054458518552  2.4699035694677094  8.5640879092626800
  6.9142754595131670  9.8125310093229476  0.0197518547132150
  5.9566019308533242  8.4753428061367728  2.0990337941067714
  4.2444140697423753  6.2043754669774929  6.4350564117225169
  3.4713322113974860  4.8916389689499455  8.5451967939979099
 -1.6753062446997049 -2.4341675165529608  4.2410569935887708
 -2.5618891592122517  3.6985989313312295  2.1292732571426702
 -6.9614121563964515  1.2257872450029206 10.6573088154976663
 -2.6208141751286012  7.3993502002998630  4.3076955370485583
  0.9973844415464268  4.9381162035737818  4.2655994962110029
 -4.3754658252446950  4.8707666746601799  4.3020683257437673
 -4.6229169642761061  8.1429653722652677  2.3213693963543478
  0.0888470842144433 -3.5858231296119616  6.5123932873653825
 -0.8180792382464741  6.1815244032032055  2.1502290923859446
  5.1006355151337885  7.3829565206261876  4.3020951804533194
