V  Zr Ti W  Cr
 1.0000000000000000
    13.0197981209999991    0.0017658650000000   -0.0018557850000000
    -4.3382706090000003   12.2715017240000002    0.0033302560000000
    -4.3422833799999996   -6.1342783819999998   10.6310263569999996
 V   Zr  Ti  W   Cr 
 114   1   4   1   4
Cartesian
  0.0400700000000000  0.0538000000000000 -0.0399700000000000
 -0.8273600000000000 -0.8884400000000000  1.9403900000000001
 -2.5506600000000001 -3.6886999999999999  6.3551900000000003
 -3.4535499999999999 -4.8729600000000000  8.5103100000000005
 -5.1948800000000004 -3.6191100000000000 10.6048600000000004
 -1.7255799999999999  1.2454700000000001  2.1347999999999998
 -2.5786400000000000  0.0314600000000000  4.2281800000000000
 -3.4248699999999999 -1.2272500000000000  6.3536599999999996
 -4.2940899999999997 -2.4344399999999999  8.4702500000000001
 -5.9817499999999999 -1.2212200000000000 10.6062799999999999
 -3.4818099999999998  2.4391799999999999  4.3247400000000003
 -4.3034600000000003  1.2109500000000000  6.3827800000000003
 -5.1687799999999999  0.0161900000000000  8.4759600000000006
  9.4816299999999991  6.2241600000000004  2.0879900000000000
 -5.2045100000000000  3.6716500000000001  6.4399800000000003
 -6.0512699999999997  2.5218200000000000  8.4487299999999994
 -3.5214500000000002  9.8567199999999993  0.0878900000000000
  7.7000200000000003  7.1861899999999999  4.4433100000000003
 -6.1110699999999998  6.1257000000000001  6.4408799999999999
 -6.9349699999999999  4.9415199999999997  8.5220199999999995
  2.6336700000000000  0.0288200000000000  0.0092800000000000
  1.7907900000000001 -1.1188199999999999  2.1704599999999998
  1.1400900000000000 -2.2636300000000000  4.4695700000000000
 -0.8539200000000000 -4.8577300000000001  8.5093200000000007
  1.7692500000000000  2.5008400000000002 -0.0039500000000000
  0.9260200000000000  1.3072400000000000  2.1398899999999998
  0.0495900000000000  0.1075500000000000  4.2862299999999998
 -0.8105900000000000 -1.2551399999999999  6.3973899999999997
 -1.7112099999999999 -2.4346399999999999  8.4970900000000000
 -3.4301800000000000 -1.1966600000000001 10.5954300000000003
  0.0682500000000000  3.7762400000000000  2.0714800000000002
 -0.8524300000000000  2.5143100000000000  4.2865900000000003
 -1.7096899999999999  1.2267200000000000  6.3854800000000003
 -2.5715400000000002  0.0028600000000000  8.4873100000000008
  0.0756500000000000  7.3745300000000000  0.0311600000000000
 -1.7036700000000000  4.9358800000000000  4.2655599999999998
 -2.5854699999999999  3.6995100000000001  6.4300899999999999
 -3.4544100000000002  2.4574900000000000  8.5123999999999995
 -0.8906500000000001  9.8361599999999996  0.0362800000000000
 -1.6577800000000000  8.6476100000000002  2.1073100000000000
 -3.4730400000000001  6.1927500000000002  6.4669100000000004
 -4.3332600000000001  4.9245099999999997  8.5513399999999997
  5.2090899999999998  0.0286900000000000  0.0077100000000000
  4.3627099999999999 -1.1839700000000000  2.1242800000000002
  3.5298900000000000 -2.4148700000000001  4.2730800000000002
  2.5877500000000002 -3.6509100000000001  6.4575899999999997
  1.7406100000000000 -4.8834700000000000  8.5460899999999995
  4.3516800000000000  2.4883199999999999  0.0044200000000000
  3.5116700000000001  1.2773600000000001  2.1223800000000002
  2.6451199999999999  0.0725900000000000  4.2675000000000001
  1.7669800000000000 -1.1584500000000000  6.4666300000000003
  0.8572000000000000 -2.4437899999999999  8.5205500000000001
  3.4853000000000001  4.9262499999999996  0.0086400000000000
  2.6393900000000001  3.7107299999999999  2.1332900000000001
  1.7855300000000001  2.4455700000000000  4.2947100000000002
  0.8793000000000000  1.2755200000000000  6.4267700000000003
  0.0108700000000000  0.0256500000000000  8.5338799999999999
  2.6082200000000002  7.3904399999999999 -0.0149200000000000
  1.7360599999999999  6.1809799999999999  2.0928300000000002
 -0.0175400000000000  3.6893099999999999  6.4494400000000001
 -0.8729400000000000  2.4851999999999999  8.5177200000000006
  1.7329699999999999  9.8533899999999992  0.0044100000000000
  0.9078900000000000  8.6324100000000001  2.1310799999999999
  0.0510500000000000  7.4249299999999998  4.1970900000000002
 -0.8525300000000000  6.1707799999999997  6.3897700000000004
 -1.7405999999999999  4.9350300000000002  8.5169899999999998
  7.7995999999999999  0.0377900000000000  0.0018100000000000
  6.9431500000000002 -1.1776700000000000  2.1392099999999998
  6.0948799999999999 -2.4205600000000000  4.2727300000000001
  5.2321099999999996 -3.6470500000000001  6.3885300000000003
  4.3428300000000002 -4.8739999999999997  8.4929400000000008
  6.9432700000000001  2.4914800000000001  0.0030200000000000
  6.0858600000000003  1.2506800000000000  2.1349600000000000
  5.2435400000000003  0.0412400000000000  4.2753800000000002
  4.3899699999999999 -1.1914000000000000  6.4147699999999999
  3.4953900000000000 -2.4134799999999998  8.5372699999999995
  6.0851800000000003  4.9352799999999997  0.0161000000000000
  5.2005200000000000  3.6887900000000000  2.1603500000000002
  4.3596899999999996  2.4513199999999999  4.2784199999999997
  3.5068400000000000  1.2767999999999999  6.4132100000000003
  2.6244299999999998  0.0347000000000000  8.5306999999999995
  5.2071699999999996  7.3753299999999999 -0.0005200000000000
  4.3265799999999999  6.1434600000000001  2.1720199999999998
  3.5800600000000000  4.8995499999999996  4.2906700000000004
  2.6328600000000000  3.7157800000000001  6.4141800000000000
  1.7641800000000001  2.4836299999999998  8.5182300000000009
  4.3299599999999998  9.8736499999999996 -0.0066300000000000
  3.4316800000000001  8.6273300000000006  2.1345600000000000
  2.6648800000000001  7.3875799999999998  4.2796500000000002
  1.7859200000000000  6.2106100000000000  6.4415500000000003
  0.8669800000000000  4.9491300000000003  8.4927399999999995
 10.3826599999999996  0.0333200000000000 -0.0273000000000000
  9.5091900000000003 -1.1789000000000001  2.0918600000000001
  4.3671199999999999  9.7832000000000008  4.2309599999999996
  7.8466199999999997 -3.6450399999999998  6.3693700000000000
  6.9520099999999996 -4.8622399999999999  8.4908400000000004
  5.1837200000000001 -3.6656100000000000 10.5578299999999992
  8.6612100000000005  1.2617799999999999  2.1345499999999999
  7.8468600000000004  0.0019800000000000  4.2464800000000000
  6.9923599999999997 -1.2227200000000000  6.3628499999999999
  6.1138700000000004 -2.4193600000000002  8.4833599999999993
  8.6963100000000004  4.9772400000000001  0.0330500000000000
  7.7531800000000004  3.6856900000000001  2.1053899999999999
  6.9167300000000003  2.4630299999999998  4.2754300000000001
  6.1101200000000002  1.2388999999999999  6.3813599999999999
  5.1970700000000001  0.0009900000000000  8.4384300000000003
  7.7915400000000004  7.4435900000000004  0.1005800000000000
  6.8515100000000002  6.0916199999999998  2.1816000000000000
  5.2195499999999999  3.7078600000000002  6.3783799999999999
  4.3505599999999998  2.5006900000000001  8.5572300000000006
  2.5420799999999999  3.7594599999999998 10.6245600000000007
  5.8479799999999997  8.4836200000000002  2.0053999999999998
  4.3523500000000004  6.1910200000000000  6.3813899999999997
  3.4961500000000001  4.9298599999999997  8.4993999999999996
 -1.4075400000000000 -2.5980599999999998  3.8687800000000001
 -2.5839400000000001  3.6891500000000002  2.1049500000000001
 -6.8777299999999997  1.2246900000000001 10.5372000000000003
 -2.6062699999999999  7.4233300000000000  4.2845300000000002
  0.9195200000000000  4.9464399999999999  4.2885200000000001
 -4.3569300000000002  4.9016099999999998  4.2738899999999997
  6.0134699999999999  4.9068699999999996  4.2826500000000003
  0.0308100000000000 -3.6755200000000001  6.4370799999999999
 -0.8533500000000001  6.1913900000000002  2.1204999999999998
  5.1794399999999996  7.3320699999999999  4.2791800000000002
