V  Zr Ti W  Cr
 1.0000000000000000
    13.0197981209999991    0.0017658650000000   -0.0018557850000000
    -4.3382706090000003   12.2715017240000002    0.0033302560000000
    -4.3422833799999996   -6.1342783819999998   10.6310263569999996
 V   Zr  Ti  W   Cr 
 114   1   4   1   4
Cartesian
 -4.3011627439326992 -6.0953616754355133 10.6190577037713645
 -5.1614632274757133 11.2828593706387554  1.9914721863952269
 -2.6636555289324066 -3.6591313313713298  6.4629756913150480
 -3.4708201553341849 -4.9057551287482841  8.5120714612062525
 -0.8291013473061379  2.4968088131836352  0.0079893983515674
 -1.6952489026820199  1.2323986638242104  2.1310633772049652
 -2.6001499960510945  0.0916613509462844  4.2313304556974440
 -3.4668433907246352 -1.1702287745074005  6.3840143799241078
 -4.3271712351579597 -2.4188535976829644  8.5065667335220283
 -5.9585292263969531 -1.2164473135259732 10.6285413191203464
 -3.4783608567049509  2.4317736380250428  4.2967845271768708
 -4.3182515991203250  1.2321935055990956  6.3846373552378006
 -5.1748556583137582  0.0431902836102139  8.5107912015027036
  9.5986947010757877  6.1696612884295279  2.0927561024607808
 -5.1272487448408750  3.6057047945984841  6.4535195474408260
 -6.0519112351956146  2.4887347875244439  8.4893684619320684
 -3.4871948695198309  9.8924473296990918  0.0491393895859995
 -5.1448539329947502  7.3968298435338866  5.0441978650624275
 -6.3565079486587104  5.8209367964861567  6.2631134689054715
 -6.9672292387324832  4.8903987228506329  8.5456595757406948
  2.6330800340372948  0.0281587135952245 -0.0278769823950747
  1.8032350436425919 -1.1317354645310724  2.1477574024055484
  1.1097630838743868 -2.2068316973771234  4.4722688605718908
 -0.8744334902788063 -4.9020792830355697  8.3848553123506608
  1.7833954234036236  2.4770904316443429 -0.0113562715647551
  0.9435733926445735  1.2823772530768707  2.1204625129376797
  0.0422583916982866  0.1111201656043873  4.2671346216150150
 -0.8436001213359934 -1.1234318740663034  6.4462479118776130
 -1.7495891258331342 -2.4399263238639439  8.5082596254373968
  0.9160648384442633  4.9227254990572220 -0.0029011170256832
  0.0975878333713977  3.7409242768679616  2.0780610876275607
 -0.8150624779193478  2.5060562036984426  4.2491440813085184
 -1.7098169812257171  1.2715918050904553  6.3917093335789685
 -2.5986809783870441  0.0236541503771562  8.5192247103086309
  0.0747735961079209  7.3909142956531575  0.0468506782797751
 -1.6921091835204993  4.9593109537860549  4.2635304689282671
 -2.5421879665729561  3.6733844689841426  6.4087218737684788
 -3.4432796014934897  2.4772093032214499  8.5341098766528916
 -0.8676872710880880  9.8537643424259098  0.0181461194928279
 -1.5924270653097159  8.6594601887560714  2.1239283713902575
 -3.4171869160484842  6.1135430937845516  6.5045690875667654
 -4.3504529347735605  4.9082763818389337  8.5299805036821859
  5.2012052416745567  0.0322657769800479 -0.0112068860942781
  4.3650226550716411 -1.1725465143769578  2.1078976035935657
  3.5328964335533541 -2.4027236781627184  4.2592202761154692
  2.6902906217364184 -3.6288307113502838  6.4565364579192703
  1.7482907000038534 -4.9137278670699356  8.5288042874855954
  4.3355480553293724  2.4531480677624025 -0.0069728436964648
  3.5272195901180421  1.2869054679067176  2.0986470807624782
  2.6627149142447131  0.0739285417883067  4.2262014102424015
  1.8043854754706916 -1.1100668913658007  6.4336020166753229
  0.8707387179697813 -2.4361645817982698  8.5138316686147917
  3.4595807082447019  4.9063420524493528 -0.0043358802223503
  2.6994821191070706  3.7361609035115690  2.1399351696009958
  1.8173744476535332  2.4703200998808477  4.2479788143419146
  0.8899097288807191  1.3151771560973964  6.3816929938959692
 -0.0225729016709838  0.0636349715849685  8.5046871987507462
  2.5935561186181295  7.3863589043364257  0.0043676432566447
  1.7574138023494936  6.1845677851415370  2.0986590811705108
  0.0269839173152301  3.7001438185016773  6.4187024366437404
 -0.8725582301096375  2.5052529877247642  8.5267417686775406
  1.7506900086610933  9.8620205924760054  0.0204394445447999
  0.9168067810249894  8.6451131817178641  2.1257982433260052
  0.0510535935795140  7.4313537732986914  4.1999928820760672
 -0.8067780427850880  6.1633036781164847  6.3811161043071367
 -1.7262366847572821  4.9204110444704092  8.5134993054698764
  7.7952684251307218  0.0267703012600019  0.0105861289419722
  6.9582269114006303 -1.1712760206453547  2.1301283190220666
  6.0911222533422951 -2.4009434965090128  4.2443101855208276
  5.2389297626488656 -3.6334186945717248  6.3889907854436299
  4.3536155417091082 -4.8952417562232942  8.5081522297316301
  6.9366374439538463  2.4344615719339209 -0.0146103321263603
  6.0870113471003009  1.2967086336349136  2.1402771922482731
  5.2649437783996378  0.0640840916304310  4.2445311550480698
  4.4165112219502438 -1.1735253005905497  6.3783701260883312
  3.5342919142185760 -2.4447727564683293  8.5000173189276058
  6.0402464473514428  4.8597934518981853 -0.1312069079790802
  5.2515337836013734  3.7563072719890700  2.1317960811230146
  4.3427080712996160  2.4302540242488320  4.2500391443406889
  3.5134664734736929  1.2809662269169046  6.3796727330828329
  2.6182984453800380  0.0261874317254134  8.4425462288380810
  5.1671456012256014  7.4018056874619242 -0.0428103113024951
  4.3464178904881523  6.1976233250489638  2.1173910054807346
  3.7702755002502562  4.9488132178964488  4.2953186617830594
  2.6365260596295190  3.7214710575661805  6.3743155339519193
  1.7340166342171905  2.5055405192693980  8.4878815687314351
  4.3299068637363964  9.8845739598283320 -0.0009591977492514
  3.4666711977786937  8.6284688029427841  2.1216152180621481
  2.6347564664229184  7.3906492908181383  4.2616624635518514
  1.7707479383438247  6.1909062951942513  6.4272559155019282
  0.8735960605688895  4.9482798173010032  8.5042012392607162
  6.0651473144179162 -6.0957520012696653 10.6267008001142074
  9.5450178890561403 -1.1839812713439080  2.0982289103957159
  8.6535149863611380 -2.4380715931620442  4.2486068253752993
  7.7672229501423447 -3.6062287155330304  6.4072534302648103
  6.9413832029006812 -4.8610869593244184  8.5321304278806451
  5.2087440771465667 -3.7132854958078507 10.5796231347535823
  8.6651778674265643  1.2577289432779630  2.1371564573354349
  7.8276376645718964  0.0385163411804314  4.2362108364290449
  6.9698339051964222 -1.1756603744237664  6.3684147902213883
  6.1182586997363719 -2.4186984911671368  8.5075631584356817
  8.7560803072228328  4.8921827777139804 -0.0491176922035078
  7.8061058802296293  3.6751922431852120  2.0721742231486453
  6.8902040985864108  2.6113851275835258  4.2800165095745752
  6.1070217378207685  1.2516746511214158  6.3685320335725280
  5.2320256288386044  0.0012453372660787  8.4428122701462485
  7.7847581617395596  7.4297432466673978 -0.1632929605902993
  7.0032600803233658  6.0911128503616192  1.6289095061845356
  5.1939990804599310  3.6610246230898702  6.3897355876456610
  4.3417800457961846  2.4748590132368871  8.5412516285994151
  6.8859311851490688  9.8965116899179968 -0.0333899748767949
  5.9550088357445174  8.4894323231731175  2.0101945336433817
  4.2334231941325262  6.2220867794678769  6.4406536893146082
  3.4644868948299319  4.9149108891344016  8.5347232879393484
 -1.5540939086398720 -2.5010665518883854  4.0983601124131379
 -2.5680654342285165  3.6746120107922962  2.1133179041514056
 -6.8664409184953268  1.2258832787923424 10.5886968271493203
 -2.5901231866170598  7.4610662125128959  4.3018287973860465
  0.9643053764428966  4.9415489719610877  4.2544550643067103
 -4.2666318006145429  4.9300723173444885  4.2561937550222373
 -6.5459435890462938  5.8657796713316932  3.7279172376520444
  0.1612584846421269 -3.4730679258899104  6.5789768025069684
 -0.8497891305995890  6.1931075645254534  2.1338892635320716
  5.0649226010869803  7.5326483839218819  4.3289737639627841
