V  Zr Ti W  Cr
 1.0000000000000000
    13.0197981209999991    0.0017658650000000   -0.0018557850000000
    -4.3382706090000003   12.2715017240000002    0.0033302560000000
    -4.3422833799999996   -6.1342783819999998   10.6310263569999996
 V   Zr  Ti  W   Cr 
 114   1   4   1   4
Cartesian
 -4.3074940078813135 -6.1071743721964014 10.6268024282751110
 -5.1598382247060623 11.2203440744787795  2.0161408052115357
 -2.7181237611576394 -3.6771370032358548  6.4696918534658581
 -3.4765735649885623 -4.9136283755076438  8.5169316103438089
 -0.8331619178784607  2.4939211974157369  0.0096258070759205
 -1.6909630201634809  1.2196705501643468  2.1305714819439583
 -2.6105874847168589  0.1127026496382955  4.2413545962512700
 -3.4726575267695359 -1.1647336417049239  6.3868758919576729
 -4.3309687126263521 -2.4225363661177601  8.5076428556344528
 -5.9676004717930065 -1.2127888987434932 10.6227564428579448
 -3.4881041893627645  2.4551508308580026  4.3049460738206777
 -4.3270620851655730  1.2294972860029829  6.3859545207249990
 -5.1853841713315196  0.0431674252843934  8.5211284886106498
  9.5528808408907171  6.0539545561350439  2.0693472310285603
 -5.1249840586421653  3.5834600651477784  6.4587561329883503
 -6.0663600694743725  2.4835959459808272  8.5109504068831168
 -3.4954319002939380  9.8806067534088662  0.0600193900211031
 -5.2353726815158383  7.3216503759567440  5.2071820676790805
 -6.4622921706195786  5.6630769463643214  6.1263872259856234
 -6.9663062279389960  4.8878469451478113  8.5574212920745421
  2.6265184135821356  0.0181278009905467 -0.0343212287595486
  1.8032789369183642 -1.1385054890426127  2.1512715247381728
  1.0720244084351598 -2.2439495501075335  4.4414757860923642
 -0.8775327512688768 -4.9111054951508128  8.3482840689702620
  1.7739432829448643  2.4733950315957101 -0.0211455772712159
  0.9284995644130686  1.2730889707059034  2.1197058989020663
  0.0412068370376675  0.0909648498467045  4.2673392830438734
 -0.8344342969566091 -1.1003737611377935  6.4717482984579453
 -1.7533563290008845 -2.4381454564097003  8.5078006231844743
  0.9146943056310369  4.9250338160616591 -0.0056960769618263
  0.0932075774876660  3.7495222762857483  2.0829620728811449
 -0.8214964226821960  2.5122131128538734  4.2497258195302257
 -1.7145346849034655  1.2770185230906272  6.3938696623599700
 -2.6068474319541703  0.0258625161883656  8.5250802006327113
  0.0566175701224105  7.3828043871470044  0.0580845693241466
 -1.7107075250211810  4.9661031682037517  4.2683230838904933
 -2.5485712299232808  3.6810673479386726  6.3883671160151234
 -3.4511788784329624  2.4785087050535108  8.5400265356316538
 -0.8767970602283359  9.8407026955460406  0.0254895981523689
 -1.6349208536721316  8.6269287293461456  2.1457508582756688
 -3.4151413900747207  6.0866344554971032  6.4965895294512883
 -4.3514959061673775  4.9009550976567926  8.5322106962319513
  5.1986558771506983  0.0201624630081089 -0.0200945912870432
  4.3577881491874875 -1.1846471741563465  2.1087223083453637
  3.5088354383575924 -2.4199055929430013  4.2613622529608834
  2.6933077746087912 -3.6287120080743014  6.4485821179875593
  1.7534696585588629 -4.9181062544580003  8.5215063950420085
  4.3265712729617007  2.4414030843417320 -0.0208553793175248
  3.5095877160400697  1.2688967317111333  2.0902503185533785
  2.6506597006873451  0.0583630781623565  4.2328193977647519
  1.8098144704316184 -1.1102122631175855  6.4298269421552749
  0.8800254127654688 -2.4317331703610163  8.5182936848367916
  3.4597905081096005  4.8962065659008598 -0.0039906184999514
  2.6695584235439891  3.7102841438033152  2.1339197576700411
  1.8035691313482587  2.4632088331062576  4.2499599132714243
  0.8959805292745593  1.3118009592132922  6.3862571539785220
 -0.0133027452519585  0.0648289108242233  8.5149283475385129
  2.5956908747224339  7.3923462206997836 -0.0096553534944244
  1.7618166072407020  6.1848851319425604  2.1008327394629922
  0.0205952471220381  3.6984581383457416  6.4188916568134751
 -0.8723098528217115  2.5050847038665331  8.5234916824981433
  1.7417259101366682  9.8564767112259446  0.0183563558516337
  0.9097493050892218  8.6394356305368767  2.1294513638445296
  0.0431822585746181  7.4215504930967224  4.1975642206967265
 -0.8101246687487784  6.1652600399401907  6.3694519504559830
 -1.7283421050165411  4.9174230811289306  8.5093839545880670
  7.7976174366411461  0.0203770592431648  0.0005570581630324
  6.9476187736141535 -1.1714001728732666  2.1264100967287356
  6.0932720883892175 -2.4073090968896333  4.2451340347557700
  5.2390334676335604 -3.6389505996221541  6.3832528219243336
  4.3533436790731130 -4.9004002047322288  8.5052701624487135
  6.9273116700904733  2.4238962133617106 -0.0271984625781655
  6.0701793519353426  1.2581149896231536  2.1329208937463422
  5.2597532348932301  0.0543204447768707  4.2468613301648075
  4.4066709338864696 -1.1766186903414428  6.3813906838065995
  3.5348612793542631 -2.4371796382502908  8.5082691146115526
  6.0458892681747587  4.8628818668031153 -0.0928154368333058
  5.1989427877556995  3.6680432744608313  2.1461585316894234
  4.3233210717993416  2.3981124275364212  4.2652146724555982
  3.5090518503918537  1.2766963485334948  6.3968931819577621
  2.6271398075897392  0.0361887789643676  8.4901056804256125
  5.1813716162210310  7.3503400715453617 -0.0549225258359556
  4.2772141690121552  6.1895419898142885  2.1163668567413811
  3.8334392031174405  4.9124108369045389  4.2934086632515367
  2.6244777198169476  3.7164964064319275  6.3828252435683863
  1.7466465842299279  2.4975292244128928  8.5073733561771547
  4.3295096460678941  9.8752569860399841 -0.0117779659269655
  3.4396799772931077  8.6371847904421379  2.1272185841458691
  2.6804969345912473  7.3875080834665621  4.2677213386432298
  1.7571829625115891  6.1864877955470430  6.4315516343186889
  0.8783199902432859  4.9394438751281413  8.5098309714745195
  6.0709665390972711 -6.1104290741823171 10.6301212468820445
  9.5344160658787711 -1.1543026433687555  2.1049146004045540
  8.6492586832618770 -2.4596939194656593  4.2511446951072456
  7.7707618018740439 -3.6080700112419986  6.3873956511598147
  6.9415288740085144 -4.8679369986679051  8.5334512504137567
  5.2153216844769537 -3.7079681964851332 10.5680267571432953
  8.6685071645859324  1.2450261027888967  2.1347071455235183
  7.8227350701994141  0.0316039505726480  4.2436401251633367
  6.9634828486832872 -1.1828072768044333  6.3737643499635119
  6.1168619796322981 -2.4174002407236186  8.5094912756572167
  8.6912889479156625  4.8912137311978059 -0.0562809026479541
  7.8250106279261677  3.5759167581113078  2.0491168573781935
  6.8641724617125464  2.6270648409999544  4.2867596252630431
  6.1041208346955980  1.2424287952181015  6.3752384915189833
  5.2219040613266179  0.0054396743886964  8.4598206347391596
  7.7376060428558802  7.3469195818774491  0.0146707767833686
  6.7615722298169718  5.8413845619105134  2.0747174528333865
  5.1855170625072269  3.6445454581177068  6.4072779460991267
  4.3416808821462087  2.4685142934359030  8.5697119761127176
  6.8941609852546648  9.8441507390544096 -0.0097214470616243
  5.8716676420355167  8.5222190217057143  2.0083792255621562
  4.2089744673306821  6.2112094157518305  6.4451446853161531
  3.4665625825219251  4.8971834739924365  8.5505215268969579
 -1.6194027200754941 -2.4738047120270386  4.1915689770499158
 -2.5578324737912594  3.6621386698094569  2.1334274081947400
 -6.9222855494136430  1.2246040865143255 10.6188272298212940
 -2.6640095146268394  7.4383828889340498  4.2820548293689109
  0.9675367748756891  4.9423115794216699  4.2604762757641881
 -4.3967776179980289  4.9303637282756672  4.2374253051133204
 -5.0859272862036660  7.5794026665375265  2.7410012846222775
  0.1772162939727852 -3.4500533520820307  6.6083127920784044
 -0.8197090025639662  6.1870411248223665  2.1453910073329441
  5.1377216571463205  7.3861097670029592  4.2771184892731862
