V  Zr Ti W  Cr
 1.0000000000000000
    13.0197981209999991    0.0017658650000000   -0.0018557850000000
    -4.3382706090000003   12.2715017240000002    0.0033302560000000
    -4.3422833799999996   -6.1342783819999998   10.6310263569999996
 V   Zr  Ti  W   Cr 
 114   1   4   1   4
Cartesian
 -4.2994154028236053 -6.0922294400644139 10.6245893828376357
 -5.1629505165914411 11.2696787347212979  1.9970720303373966
 -2.7256413564254229 -3.6653958998636580  6.4736727431087520
 -3.4741743819630551 -4.9097093632916700  8.5261706729025306
 -0.8302035411799311  2.5005273396618479  0.0151967227355464
 -1.6932344618413275  1.2333400550064106  2.1339467684669722
 -2.5981664914502325  0.0957191959807003  4.2328874215142251
 -3.4681164386184418 -1.1656022859552104  6.3792957033175712
 -4.3313627428708781 -2.4183283721770570  8.5124041138411819
 -5.9611096117332005 -1.2157592353792750 10.6362983364623016
 -3.4797195825123182  2.4403141313621570  4.3005265228835352
 -4.3165480348036489  1.2239214995230008  6.3814980839829740
 -5.1744228748878092  0.0403070105202802  8.5156061762320459
  9.5105388084947968  6.1608862676491984  2.0501510912001888
 -5.1333285478572792  3.5877503814723806  6.4696325962201842
 -6.0538943658700921  2.4922767239084158  8.4992049589514558
 -3.4844364484582666  9.8876405044406894  0.0525447078663165
 -5.1287591360712517  7.4236953212086281  5.3752759407068043
 -6.4729571477479055  5.6684142517598506  6.1102490615062992
 -6.9632035955332059  4.8905643847717331  8.5549712688205588
  2.6298282130316082  0.0233661630673538 -0.0285881362183505
  1.7982650574057781 -1.1434764056380409  2.1486015620222578
  1.1091721577926343 -2.1920027248075069  4.4667694322059619
 -0.8808687437933403 -4.9121776494061082  8.3740228437636901
  1.7773914223656309  2.4782642954143235 -0.0127218055089954
  0.9324134077806714  1.2777341257324712  2.1239577425820158
  0.0344150615463454  0.1056874018114047  4.2683652176761608
 -0.8503422834651579 -1.0967294017133178  6.4541666245939551
 -1.7571926893820784 -2.4357237915510419  8.5136584397757904
  0.9162974712469587  4.9263040619023855  0.0026392163428357
  0.0879525134338175  3.7517079989506712  2.0842099727452035
 -0.8222578414764588  2.5138126316402598  4.2460359615382171
 -1.7138581411680260  1.2759529138193877  6.3939444227093105
 -2.6034392350437283  0.0250245793872239  8.5253347845227552
  0.0764430188705248  7.3844379097771133  0.0568868072112416
 -1.7176406280251550  4.9747089378685807  4.2500524518676057
 -2.5399322226236949  3.6742117932728116  6.3938340059331988
 -3.4437396124591095  2.4768811006373359  8.5400864858407193
 -0.8645754443837536  9.8510108321568115  0.0219384028201227
 -1.5984402075525406  8.6396656323734540  2.1326600203152495
 -3.3972700975531591  6.0614913421166285  6.5072140078998544
 -4.3508184051143290  4.9029543966595535  8.5417616651135688
  5.1999850215931751  0.0226444215213940 -0.0127085053185650
  4.3618131124328352 -1.1841205485245221  2.1115129276862796
  3.5285134094562003 -2.4140553966991836  4.2623915729055879
  2.7096135665296539 -3.6312514087643049  6.4450620811319848
  1.7548284257358793 -4.9177705233988869  8.5274966249748498
  4.3287518207434292  2.4467136927056230 -0.0023663586317315
  3.5141936896196815  1.2747552135987472  2.0947543950618024
  2.6542500534071403  0.0626844629828599  4.2242758265615601
  1.8117375713958574 -1.1043757627269950  6.4319530507744691
  0.8797860772952920 -2.4262141993972390  8.5269760064912674
  3.4494712944791530  4.9088605486073869  0.0113128835192966
  2.6867319150923685  3.7267762196388969  2.1405421210885116
  1.8045579561426672  2.4724426257991450  4.2435037922558854
  0.8884269222748771  1.3159414454117599  6.3794537955864108
 -0.0188474875600351  0.0757572976902895  8.5186236198756990
  2.5935772195401490  7.3857606283196757  0.0110881195554645
  1.7727416968405154  6.1836082482204526  2.1070258131923914
  0.0200256723431870  3.7007418865936779  6.4131206219409247
 -0.8749717228550237  2.5063156648971918  8.5290888235741509
  1.7488198213434032  9.8558281907212013  0.0259048075801274
  0.9235227308318578  8.6358892444215769  2.1327692088259296
  0.0354370972213111  7.4281152595131630  4.1925233816809255
 -0.8058573249994777  6.1632027091457404  6.3683699246094037
 -1.7266628330458416  4.9152099234971383  8.5141757655131958
  7.7967241837324917  0.0169194439173802  0.0053507117623328
  6.9562008119917955 -1.1795371145826590  2.1298016507183015
  6.0989760529637769 -2.4062664219152250  4.2422942996547022
  5.2395714989730067 -3.6384538491125356  6.3843962311765718
  4.3538405149329273 -4.8988646394575737  8.5055656395463011
  6.9413885557956885  2.4056819952516046 -0.0227866078088159
  6.0737914717011670  1.2686004488357601  2.1350353710026129
  5.2652319497105493  0.0547556032054653  4.2428868015581251
  4.4138944571560890 -1.1793223452034303  6.3769217321797829
  3.5442940645303915 -2.4373697716500913  8.5096525239638794
  6.0129025695919900  4.8172245705040160 -0.1757167617677068
  5.2160572286962985  3.6852774309992049  2.1627146797748411
  4.3251760807573234  2.4008289424520073  4.2626423533028772
  3.5073760848889166  1.2746274051436592  6.3781397425076580
  2.6315521356104985  0.0440670924861562  8.4522949863369998
  5.1721226018636957  7.3895477540710797 -0.0552036262203893
  4.3709302763918680  6.2032835058585096  2.1593096087903749
  3.7831430844463743  4.9188772458430385  4.3158551034099801
  2.6160183138873592  3.7212458341077927  6.3667653831428828
  1.7357972781148383  2.5037772228502124  8.4797986411877879
  4.3262020215942822  9.8810054017681708 -0.0025804111274097
  3.4711514395317349  8.6184230548620100  2.1324716491770239
  2.6550873019803083  7.3876542815157089  4.2705680576044553
  1.7493375034896730  6.1891863544764885  6.4258340600192820
  0.8674534012913302  4.9464708029246429  8.5012407981626819
  6.0678483904475131 -6.0941129142610979 10.6273134164876311
  9.5463286017341620 -1.1681180850057904  2.0996159707411928
  8.6628647691232459 -2.4480350399320385  4.2413393990843540
  7.7633928749138130 -3.5996359304575698  6.3992442263260001
  6.9390800666291685 -4.8588340232843104  8.5362348598699853
  5.2193626197874945 -3.7169952670297213 10.5784833006699213
  8.6680156158451958  1.2447832656724611  2.1392264300319157
  7.8305072314093342  0.0265387052663631  4.2393309562768460
  6.9687811406770219 -1.1811363566251480  6.3706088746619800
  6.1213716029427037 -2.4183105668369866  8.5121285784930798
  8.7540654663073543  4.8991172289578477 -0.0538497418202866
  7.8257826874205030  3.5969170907728230  2.0620381830152730
  6.8787656697401802  2.5888712739084476  4.2994648442714185
  6.1118699804033643  1.2328607852989519  6.3693573115171871
  5.2328688201173659  0.0032549514079494  8.4424670194688556
  7.7958453717629332  7.4358656277169333 -0.1149663573395840
  6.8608804645714958  5.8852873836581638  1.5688445951933063
  5.1846107492113278  3.6390878072455988  6.4066539215317162
  4.3455288538258570  2.4752658135853602  8.5424382442657567
  6.8952615136789133  9.9085210752292916 -0.0627447753964869
  5.9829255788609208  8.5273386260368085  1.9321769825845470
  4.2109692315378346  6.2025326474476561  6.4712127047279449
  3.4679623632770205  4.9095902827688160  8.5444291913989066
 -1.5716753542998712 -2.5343829887069389  4.1188666390234321
 -2.5744455804018287  3.6817441173607639  2.1267707123351625
 -6.8599894084112698  1.2263882908466368 10.5826464607889150
 -2.6856222661034779  7.4543745646835458  4.2535543333121302
  0.9517438847575685  4.9487260346077031  4.2519198815237811
 -4.3708194678324270  4.8938771207009362  4.2453708441250724
 -5.8630551419836214  6.8329155423940460  3.4002601081226294
  0.2060988218055325 -3.4000775622144674  6.6390711608757318
 -0.8473321941616981  6.1937899870101374  2.1390755498054816
  5.0733644167310112  7.4299249964161920  4.3446781593476951
