Cr
 1.0000000000000000
     8.5353406389999993    0.0000000000000000    0.0000000000000000
     0.0000000000000000   11.3804541859999997    0.0000000000000000
     0.0000000000000000    0.0000000000000000   14.2255677320000000
 Cr 
 117
Cartesian
  1.5221319205689430  1.4367500301867724  1.3649477346327157
  1.3776916380631923  4.2689939526718854  1.4665067422163487
  2.9512961923918128  2.8873479051757602  2.8093516722196341
  2.8424047924494742  5.6601349816894535  2.8710072555072608
  8.4737252428317067  5.6121317796707153  2.9026836878371238
 -0.0001972519314289  3.0230338952589033  2.8321524025131763
  4.1599154187233003  4.1840052555775644  6.9105364738430080
  2.9558712404942513  0.0474953764784336  5.7877497355341907
  4.4291376413738730  1.3049358097267152  1.4957737986290456
  4.2731853856599331  4.1079486427408458  1.3890575846752524
  7.3943564491996172  1.3394388745805621  1.1446045719575881
  7.1644436201596262  4.2062721587422489  1.4397742058491707
  5.9071981886541840  2.7747557510507108  2.8476842632144690
  5.5672687059527632  2.8861103641429544  5.6929677647000547
  8.4121550260210043  5.8358370051145556  5.7539281282329560
 -0.0297917708361149  3.0205351437783241  5.5606147986185555
  0.1097028021000698  5.7448109133005145  0.0254245645797253
  4.3426416520762441  1.3054805209469795  4.1029798344365505
  1.4691531584084034  1.4500478204882146  4.1879808965146541
  1.4953361554634572  4.3349310508608818  4.1983215272897478
  2.7413415571904181  2.8664833169251680  5.7240285762900118
  2.7690444843089579  5.6703964883613587  5.6901535076528784
  4.2276563765478130  4.1834934386682514  4.1453861572337152
  8.5503587963390348  0.0723826107841730  5.6644793635749817
  1.3529255932652950  4.3418276294583080  7.1045260887265202
  4.2397793292319772  1.5352934900704027  7.1654196609018745
  5.6684974435031412 -0.0332250740146637  5.6010244151264432
  6.9850724133133886  4.3048109488081936  6.9873647602671385
  5.6394107241308689  5.7092068714550139  5.6149924587196107
  7.0748385784339902  4.2890943478918073  4.2379171133917568
  7.1566655300146342  1.3532067043405771  3.9865910259044171
  1.4413655094444753  1.5065181523728370  7.0377854295836766
  7.0016358260101077  1.4854500528542698  7.0251766455507276
  1.2535589764434099  1.4536023388153314  9.7396195546603206
  1.4224674517810345  4.2733259022939203  9.9824014581859863
  2.8850876511976122  2.9607391631025077  8.5415384327971928
  5.7017761766815189 -0.0160034334981441 11.3931913633728019
  4.2400328742027282  4.2330217919600006  9.9930401781547076
  4.2281071391916276  1.5273599191403389  9.9760603419995313
  0.0724544087781012  2.8409087137484552  8.6793322989058499
  7.1625722450387475  1.5204053338283301 10.0207576061414176
  5.7179142195904253  2.9361210749749840  8.5320675410360103
  7.1585894199872016  4.2411034036922457  9.8232460092887290
  5.6836653122925762  5.6614063789844513  8.5169897688388829
  2.9173588993656634  5.7007904623365402 11.3043605961441997
  8.4878484808039669  2.8657116522425414 11.5317565594932443
  8.5015998534482726  5.4314256047725680 11.2658031126946216
  2.7267549538284541  2.8647528544980290 11.3565378714957834
  1.2130308645370602  1.4013786540853976 13.1636780009829994
  1.4349845331987738  4.2781993740749362 12.8420809130254394
  4.1392023490598797  1.5042409743672609 12.7471596409320824
  5.6087675740075111  2.8389933247971535 11.5628943976986402
  7.1184911399388318  1.4665621808648110 12.7836055122470853
  0.0946094893097877 11.2440144834080336 11.2930369253814220
  4.2723964709395172  4.2206486955308913 12.8440585975658887
  7.2275803132662180  4.1902542785429953 12.8784402700436118
  2.9668746333938838  0.1457373628401756  8.4808970450708276
  5.8452327653038498 11.2866917695450777  8.6844310551244028
  2.7221194433283804  2.8814152554881574  0.0066450652384758
  5.6734694400712851  2.8161922534799575  0.0210084696173668
  1.3983127466678620  7.1266413815772536  1.4072458397495746
  1.3259856094956397  9.9846044827878480  1.4276790401160717
  2.7298662182164191  8.4172620010662076  2.9318345678186417
  4.2939568233752254  9.7598340650534627  1.5023569272008539
  8.4195936324238776  8.4074553309440621 14.0945695134735107
  5.7129276718306539  5.6176021155047415  2.7050644178330900
  5.5197611740970611 11.3066198553526398 14.1332741731643683
  4.2570887162744997  7.0666920242530109  1.3754434199273586
  8.5380731969797612  8.5087561860346792  2.8200061468261479
  7.0392257389020916  7.0874970265293120  1.4578763628184794
  7.0509018008680640  9.8950935984230046  1.4817418168163299
  5.6954607177889347  8.5647584533414243  2.8882360176247359
  5.7301620865195986  8.6009119541454311 14.1356440013778215
  5.7563860123449562 11.3184124973690512  2.7739379768911006
  4.3562011418426039  9.7986438658416279  4.3824903789091110
  4.1807627361744641  7.0060315893032401  4.1380754966914655
  1.4642468964374065  7.1120391743391753  4.3202539224070309
  1.5618218574225902 10.0359206756919619  4.4137865169596671
  2.6876377481448652  8.3990107845038171  5.7671850044667723
  2.8845273773175477 11.3030713686597348  2.7925303801941870
  7.1279203566157818  9.9215022304868690  4.3226248845779898
  8.4147436851692206  8.4934872809869049  5.6242472478246688
  7.2073115016889568  6.9931342391443252  4.2552028935778141
  7.0340905298078056 10.0613343197238443  7.1780259842801097
  5.6761484828341011  8.4369925070863960  5.5452166816806789
  4.2635659062591191  9.9542971534621714  7.1715214420616631
  5.6617823702090977  5.6289114905196431 14.2115846214604371
  2.8471987115365267 11.2674853040730945  0.1156209626746178
  1.3878814210057258  7.1366702123183012  9.8458220693391567
  1.5008022303891182  9.9755170531356328  9.9528287241178752
  2.8165310782873632  8.4674084052479266  8.5343404798333342
  4.3537982386302945  9.8737243989139802 10.0547227539572113
  2.7183882595610620  0.0002521324110031 11.4078387636822463
  4.2080796229399740  7.0819670121252534 10.0200145164126155
  2.8695279723596574  5.6923894156899300  8.5745032476928831
  5.7625509600538019  8.4996100943791859 11.4079851302659510
  1.3359689963161945  9.9649657307639714  7.0111020429086688
  8.4746680020892615  8.6643545627728109  8.6220440637762845
  8.4835182645539948  5.7307697416618470  8.4866089224791530
  5.8326581890773772  5.6465798707693819 11.3746722708821295
  7.1912756537616254  7.1153012021183963  9.9698127140831954
  5.7226283643698697  8.4970302961424373  8.6776890641570095
  7.1937911063069109  9.8594150050759310 10.0513009995865819
  0.0346279439920187  0.0633867152333260  8.5594446963214867
  7.1507734753423930  7.0832578891283271 12.7817096947824957
  4.2582897081765534  7.0231744386938217 12.7814212099456785
  1.4697069616937637  7.1238166609588269 12.7304386073869473
  1.7181279385340213 10.0844148309779165 12.7647308206492660
  2.8668957689154149  8.4965809908163550 11.4270476039588456
  4.3153648432373997  9.9522381706833833 12.7923237922215467
  7.1588249878436327 10.0130170398408183 12.7789090160065886
  0.1039972770166397  8.3459443134546287 11.3506259129244089
  2.7786106055736544  8.6568329980391265 14.1593575218591088
  2.8092549594564735  5.7658644793370364  0.0913695887148380
  4.2091018679904941  7.1048724222511055  7.0325388443064689
  7.1166261126303674  7.2423540831714872  7.1899121057967843
  1.2935513759925961  7.2223888367021081  7.2372941342097521
