53
Lattice="8.96924313065 1.25181351975e-07 5.42077165329e-08 1.2518135246e-07 8.96924294695 -2.20964602923e-07 5.42077168957e-08 -2.20964603612e-07 8.96924288464" Properties=species:S:1:pos:R:3:force:R:3 config_type=vacancy pbc="T T T"
V        1.41301735       1.34801271       1.48129451       0.14829595       0.46004729      -0.28975717
Cr       0.01699984      -0.06149851       2.87331714      -0.51535368      -0.13780267       1.06709851
V        1.47382481       1.49077805       4.42210102      -0.19286088      -0.34778100       0.38823186
V        0.02114365      -0.02626108       6.14169198      -0.21392474       0.41403992      -0.93193273
V        1.49777110       1.62602531       7.47089016      -0.24304183      -0.71283265       0.20663291
Cr      -0.03107104       2.92124188       0.05980829       0.28060986       0.88840321      -0.30915680
Cr       1.54908711       4.52278855       1.67636041      -0.33689564      -0.28774989      -1.26855502
Cr      -0.07616218       2.96527510       2.96365504       0.46704783      -0.35997683       0.07709615
V        1.57456256       4.40561984       4.52225725      -0.56463046       0.57678716      -0.54147007
V       -0.02642447       2.96403821       5.89691555      -0.10815209      -0.12850223       0.50805648
V        1.40112776       4.59376848       7.50216723       0.79926237      -1.04959519      -0.31346454
V        0.07393745       5.96632902       0.00444684      -0.46040430      -0.19225416       0.45592811
V        1.50245855       7.52460273       1.45881106      -0.15057696      -0.40714122       0.00911311
V        0.02205711       5.98202652       3.01224377      -0.05756888      -0.26943616      -0.06254843
V        1.47081088       7.48491876       4.45979007       0.34880017      -0.17252294       0.29017682
V        0.10116600       5.92955719       6.07424006      -0.71395387       0.47971210      -0.55070967
V        1.50430588       7.49168630       7.54085192       0.02472108      -0.18790468      -0.10557662
V        2.90901139      -0.06514631       0.03589138       0.87167760       0.96903230      -0.46005701
Cr       4.43427517       1.51063190       1.48968590       0.30816640       0.02867324      -0.04459376
V        2.97820984      -0.00373050       3.01972604      -0.29918421       0.12741329      -0.37576425
V        4.36995376       1.52463407       4.51831069       0.81074454      -0.32917576      -0.39106473
Cr       2.96885800      -0.01469106       5.98718366      -0.29341095       0.29500289      -0.00132027
V        4.48062828       1.54697352       7.53140291      -0.14301887      -0.17177829      -0.36783257
V        2.97774818       3.04619324      -0.03432055      -0.30686078      -0.18600948       0.35541910
V        4.45702216       4.54536734       1.48190080       0.41092260      -0.43353180      -0.12520494
Cr       2.97926382       2.96791979       2.96663076       0.10779556      -0.01222984      -0.03255134
Cr       4.50506547       4.43195832       4.44981625      -0.16785562       0.36617525       0.15551803
V        2.93744519       2.97877743       5.90725761       0.35194754       0.15238579       0.75952518
V        4.51322336       4.45823008       7.42555294       0.05073173       0.58047811      -0.12829323
Cr       3.06885804       5.95246063      -0.09321314      -0.40046280       0.60773446       0.47343129
V        4.42507787       7.52514331       1.49744970       0.76713648      -0.03287136      -0.00703085
Cr       3.06997357       5.94210939       2.89668214      -0.41195699       0.37766194       0.89007771
V        4.40289175       7.50880765       4.45755460       0.72768205      -0.39213920       0.24823748
V        2.99653078       6.00592418       5.96037961       0.07528902      -0.01929814       0.08002642
V        4.45950717       7.58314823       7.43956871       0.42346786      -0.37038276       0.07841147
V        6.03863651       0.04218419      -0.01395698      -0.79520279      -0.24327959       0.16535969
V        7.49542141       1.44462436       1.41754907      -0.04337522      -0.00639632       0.22908084
V        6.04704748       0.02578812       3.09885079      -0.81522857      -0.14347037      -0.86660337
V        7.45406760       1.35334473       4.39784954       0.25961432       0.81225376       0.64760201
V        6.03066164      -0.01115602       5.95222830      -0.36220121       0.16648491       0.48459536
V        7.46508067       1.56586332       7.56374798      -0.11054904      -0.32956988      -0.37051767
Cr       5.97203651       3.11887184       0.01848400      -0.05319432      -0.80618528      -0.09474110
V        7.50984402       4.45325545       1.49862241      -0.06215440       0.42017684       0.03173760
V        6.02178991       3.03434541       3.00091927      -0.47843939      -0.55450681      -0.29348342
V        7.46862962       4.43396591       4.44435222       0.05495588       0.08784650       0.55398645
V        5.87095212       2.97874973       5.91784410       0.74971060       0.04291431       0.27439568
V        7.52478148       4.46310403       7.49687218      -0.31292105       0.10861977      -0.11077658
V        5.93958453       6.06576486      -0.01249477       0.46540440      -0.16182245      -0.06311649
V        7.46534405       7.41324775       1.50257308       0.30869539       0.37841808      -0.29652386
Cr       6.02916217       5.92810850       3.05918378      -0.29814961       0.24181978      -0.58649335
Cr       7.45960772       7.45541284       4.50424833       0.69354128      -0.10818763       0.11181117
V        6.04799924       5.99705299       5.90624629      -0.52643422      -0.15454701       0.49375633
V        7.54517543       7.47181963       7.55654309      -0.06825715       0.12680072      -0.04616588
53
Lattice="8.96924313065 1.25181351975e-07 5.42077165329e-08 1.2518135246e-07 8.96924294695 -2.20964602923e-07 5.42077168957e-08 -2.20964603612e-07 8.96924288464" Properties=species:S:1:pos:R:3:force:R:3:forces:R:3 config_type=vacancy_aa parent_id=99999999 generation=9 step=0 variance=0.07490817457437515 loss=0.07490817457437515 energy=-476.6945382081615 pbc="T T T"
V        1.41301739       1.34801269       1.48129451       0.14829595       0.46004729      -0.28975717      -0.12914841       0.77550054      -0.02013627
Cr       0.01699984      -0.06149851       2.87331724      -0.51535368      -0.13780267       1.06709851      -0.43413469       0.05599561       1.07785022
V        1.47382486       1.49077809       4.42210102      -0.19286088      -0.34778100       0.38823186      -0.31191313      -0.35128865       0.02461523
V        0.02114365      -0.02626108       6.14169216      -0.21392474       0.41403992      -0.93193273      -0.19018996       0.14270276      -1.11882877
V        1.49777114       1.62602532       7.47089005      -0.24304183      -0.71283265       0.20663291      -0.18916826      -0.76763409       0.11921535
Cr      -0.03107104       2.92124200       0.05980829       0.28060986       0.88840321      -0.30915680      -0.02775974       0.73816991      -0.25938541
Cr       1.54908717       4.52278852       1.67636037      -0.33689564      -0.28774989      -1.26855502      -0.10189285      -0.42614850      -1.05852532
Cr      -0.07616218       2.96527505       2.96365499       0.46704783      -0.35997683       0.07709615       0.57091427      -0.39799851      -0.17030858
V        1.57456255       4.40561962       4.52225733      -0.56463046       0.57678716      -0.54147007      -0.60579228       0.53002906      -0.63363045
V       -0.02642447       2.96403813       5.89691544      -0.10815209      -0.12850223       0.50805648      -0.14310448      -0.21730511       0.53648394
V        1.40112782       4.59376860       7.50216722       0.79926237      -1.04959519      -0.31346454       1.00910616      -1.04461229      -0.06489516
V        0.07393745       5.96632910       0.00444684      -0.46040430      -0.19225416       0.45592811      -0.28642446      -0.34932110       0.68131590
V        1.50245857       7.52460289       1.45881104      -0.15057696      -0.40714122       0.00911311      -0.02076489      -0.56836516       0.25601369
V        0.02205711       5.98202658       3.01224375      -0.05756888      -0.26943616      -0.06254843       0.05440069      -0.16972890       0.16590106
V        1.47081089       7.48491859       4.45979023       0.34880017      -0.17252294       0.29017682       0.34551224       0.02468440       0.18051019
V        0.10116600       5.92955732       6.07424021      -0.71395387       0.47971210      -0.55070967      -0.79781735       0.64801717      -0.74975652
V        1.50430584       7.49168634       7.54085207       0.02472108      -0.18790468      -0.10557662       0.41117233       0.04894888      -0.18813674
V        2.90901136      -0.06514631       0.03589138       0.87167760       0.96903230      -0.46005701       0.83224452       1.14157987      -0.22584769
Cr       4.43427515       1.51063192       1.48968589       0.30816640       0.02867324      -0.04459376       0.18851459       0.18811962      -0.03920279
V        2.97820973      -0.00373050       3.01972604      -0.29918421       0.12741329      -0.37576425      -0.03286327       0.28890616      -0.43532157
V        4.36995363       1.52463412       4.51831055       0.81074454      -0.32917576      -0.39106473       0.49251863      -0.47277498      -0.23623328
Cr       2.96885800      -0.01469106       5.98718357      -0.29341095       0.29500289      -0.00132027      -0.24202590       0.18037909       0.15005374
V        4.48062849       1.54697347       7.53140306      -0.14301887      -0.17177829      -0.36783257      -0.10875027      -0.15652308      -0.39125890
V        2.97774816       3.04619312      -0.03432055      -0.30686078      -0.18600948       0.35541910      -0.36441845      -0.33045074       0.55584264
V        4.45702219       4.54536724       1.48190081       0.41092260      -0.43353180      -0.12520494       0.46573767      -0.05619083      -0.00862390
Cr       2.97926378       2.96791983       2.96663070       0.10779556      -0.01222984      -0.03255134       0.11176778       0.11962372      -0.10012313
Cr       4.50506544       4.43195820       4.44981623      -0.16785562       0.36617525       0.15551803      -0.08467560       0.48282081      -0.19942616
V        2.93744516       2.97877741       5.90725756       0.35194754       0.15238579       0.75952518       0.47497815       0.39959276       0.72031182
V        4.51322317       4.45823002       7.42555285       0.05073173       0.58047811      -0.12829323      -0.07300785       0.54531729       0.35396656
Cr       3.06885815       5.95246077      -0.09321314      -0.40046280       0.60773446       0.47343129      -0.50462437       0.50365531       0.37776130
V        4.42507792       7.52514315       1.49744976       0.76713648      -0.03287136      -0.00703085       0.46883488      -0.62559789       0.16705152
Cr       3.06997347       5.94210958       2.89668202      -0.41195699       0.37766194       0.89007771      -0.58998442       0.15878998       0.68158883
V        4.40289164       7.50880766       4.45755482       0.72768205      -0.39213920       0.24823748       0.60434401      -0.48666072       0.06644605
V        2.99653077       6.00592422       5.96037960       0.07528902      -0.01929814       0.08002642       0.30739290      -0.22556826      -0.14966266
V        4.45950699       7.58314800       7.43956852       0.42346786      -0.37038276       0.07841147       0.02679157      -0.41267771      -0.07397310
V        6.03863668       0.04218419      -0.01395698      -0.79520279      -0.24327959       0.16535969      -0.91898322       0.12948471       0.35869986
V        7.49542141       1.44462430       1.41754901      -0.04337522      -0.00639632       0.22908084       0.39614171       0.48496306       0.28008023
V        6.04704762       0.02578812       3.09885073      -0.81522857      -0.14347037      -0.86660337      -0.76488197      -0.39819419      -0.91833633
V        7.45406771       1.35334468       4.39784956       0.25961432       0.81225376       0.64760201       0.54919291       0.81012696       0.46993846
V        6.03066158      -0.01115602       5.95222807      -0.36220121       0.16648491       0.48459536      -0.07177571      -0.11413443       0.19826202
V        7.46508074       1.56586337       7.56374788      -0.11054904      -0.32956988      -0.37051767       0.01905498       0.03703924      -0.15130560
Cr       5.97203636       3.11887193       0.01848400      -0.05319432      -0.80618528      -0.09474110       0.17786977      -0.89575994      -0.20863371
V        7.50984383       4.45325565       1.49862242      -0.06215440       0.42017684       0.03173760      -0.11067586      -0.11030467      -0.17439185
V        6.02179003       3.03434539       3.00091934      -0.47843939      -0.55450681      -0.29348342      -0.92922753      -0.58525234      -0.31086469
V        7.46862984       4.43396568       4.44435215       0.05495588       0.08784650       0.55398645       0.29055762       0.21336123       0.21430705
V        5.87095213       2.97874975       5.91784430       0.74971060       0.04291431       0.27439568       0.49381599       0.23254006       0.16954553
V        7.52478170       4.46310425       7.49687195      -0.31292105       0.10861977      -0.11077658      -0.44560272      -0.16093504       0.14987056
V        5.93958473       6.06576490      -0.01249477       0.46540440      -0.16182245      -0.06311649       0.43387732      -0.37884980      -0.04214485
V        7.46534395       7.41324759       1.50257313       0.30869539       0.37841808      -0.29652386       0.21300142       0.39356694       0.27320600
Cr       6.02916241       5.92810869       3.05918384      -0.29814961       0.24181978      -0.58649335      -0.28563079       0.40500635      -0.11072533
Cr       7.45960760       7.45541286       4.50424814       0.69354128      -0.10818763       0.11181117       0.31210825      -0.18605909      -0.12699048
V        6.04799938       5.99705315       5.90624619      -0.52643422      -0.15454701       0.49375633      -0.36570311      -0.00242046       0.09590453
V        7.54517555       7.47181940       7.55654287      -0.06825715       0.12680072      -0.04616588      -0.11890851       0.21183524      -0.15807305
53
Lattice="8.96924313065 1.25181351975e-07 5.42077165329e-08 1.2518135246e-07 8.96924294695 -2.20964602923e-07 5.42077168957e-08 -2.20964603612e-07 8.96924288464" Properties=species:S:1:pos:R:3:force:R:3:forces:R:3 config_type=vacancy_aa parent_id=99999999 generation=9 step=11 variance=0.5599154233932495 loss=0.5599154233932495 energy=-476.94883555164427 pbc="T T T"
V        1.39459956       1.28543520       1.55626237       0.14829595       0.46004729      -0.28975717      -0.02582966       1.35600567      -0.56994087
Cr      -0.05507659      -0.02530441       2.78134608      -0.51535368      -0.13780267       1.06709851      -0.03576617      -0.42185104       1.69908655
V        1.43259430       1.43367863       4.44048262      -0.19286088      -0.34778100       0.38823186       0.03937552       0.04154905      -0.04250133
V        0.02028640       0.00046231       6.15473509      -0.21392474       0.41403992      -0.93193273      -0.20463262      -0.07038169      -1.09807563
V        1.51158094       1.62349772       7.43354177      -0.24304183      -0.71283265       0.20663291      -0.19263515      -0.67906797       0.34585246
Cr      -0.05148200       2.94096231       0.04520941       0.28060986       0.88840321      -0.30915680       0.11296491       0.54877973      -0.14559977
Cr       1.57460344       4.52008343       1.72666800      -0.33689564      -0.28774989      -1.26855502      -0.29586232      -0.34464547      -1.35523677
Cr       0.00523299       2.90953207       2.95571065       0.46704783      -0.35997683       0.07709615      -0.09158681      -0.04490368      -0.02571745
V        1.49991572       4.44845104       4.46607780      -0.56463046       0.57678716      -0.54147007       0.05516382      -0.00155286       0.03347576
V       -0.00245303       2.96339011       5.88574600      -0.10815209      -0.12850223       0.50805648      -0.32361776      -0.13396069       0.65435791
V        1.44668806       4.59404230       7.44937563       0.79926237      -1.04959519      -0.31346454       0.66561079      -0.88641167       0.38202223
V        0.09042248       5.94560099       0.06426106      -0.46040430      -0.19225416       0.45592811      -0.36374551      -0.33687133       0.07346625
V        1.52895546       7.49803591       1.43466043      -0.15057696      -0.40714122       0.00911311      -0.19625896      -0.56788152       0.46038866
V        0.00240800       5.97813892       3.02738714      -0.05756888      -0.26943616      -0.06254843       0.07410729      -0.00652297       0.01614223
V        1.51268804       7.49808931       4.49785662       0.34880017      -0.17252294       0.29017682       0.00622174      -0.04643350      -0.07244862
V        0.08079231       5.92669249       6.06509972      -0.71395387       0.47971210      -0.55070967      -0.60614836       0.71384609      -0.59479558
V        1.54613364       7.49811459       7.52177334       0.02472108      -0.18790468      -0.10557662       0.17308627      -0.02638336      -0.09010617
V        2.92155957      -0.04500139       0.07049823       0.87167760       0.96903230      -0.46005701       0.84254324       1.05696309      -0.59501660
Cr       4.45358133       1.53622091       1.48898542       0.30816640       0.02867324      -0.04459376       0.02357479       0.03394484      -0.01208413
V        2.98626542       0.02207216       2.98413467      -0.29918421       0.12741329      -0.37576425      -0.04571072      -0.08673748       0.02261734
V        4.36583567       1.51027071       4.54558849       0.81074454      -0.32917576      -0.39106473       0.41213936      -0.34856015      -0.38473639
Cr       2.94684315       0.01046038       5.99204302      -0.29341095       0.29500289      -0.00132027      -0.03207089      -0.02392648       0.05998589
V        4.46488905       1.51204193       7.47839785      -0.14301887      -0.17177829      -0.36783257      -0.02266947       0.06882917       0.08543052
V        2.93113208       3.02482939       0.01441342      -0.30686078      -0.18600948       0.35541910       0.06498867      -0.13623860       0.07782696
V        4.49125528       4.54744673       1.48098588       0.41092260      -0.43353180      -0.12520494      -0.03113414       0.04776537       0.07129267
Cr       2.99585319       2.97040224       2.96079183       0.10779556      -0.01222984      -0.03255134       0.03605054      -0.00143022       0.02208368
Cr       4.48944998       4.45469046       4.42355251      -0.16785562       0.36617525       0.15551803       0.03092428       0.28875953      -0.05877534
V        2.98671150       2.98558617       5.93654203       0.35194754       0.15238579       0.75952518       0.00014205       0.48385295       0.24246833
V        4.54373169       4.49569225       7.37451124       0.05073173       0.58047811      -0.12829323      -0.37041602       0.20182966       0.91609573
Cr       3.01437187       6.02468204      -0.04146601      -0.40046280       0.60773446       0.47343129      -0.08806904       0.01773182       0.05662055
V        4.40730476       7.51433849       1.46391141       0.76713648      -0.03287136      -0.00703085       0.49993166      -0.63939619       0.38881096
Cr       3.00539088       5.90457964       2.92988205      -0.41195699       0.37766194       0.89007771      -0.08821113       0.41929811       0.36436051
V        4.43282127       7.49592543       4.47904968       0.72768205      -0.39213920       0.24823748       0.21520752      -0.39275235      -0.21559024
V        3.05064464       5.96822405       5.92940617       0.07528902      -0.01929814       0.08002642      -0.05906586      -0.02607115      -0.03648782
V        4.48136854       7.53081369       7.43898296       0.42346786      -0.37038276       0.07841147      -0.10291141      -0.04445655       0.07155767
V        6.04214573       0.03386614       0.00828311      -0.79520279      -0.24327959       0.16535969      -0.89647686       0.21966442       0.15737318
V        7.50852728       1.46293688       1.48398840      -0.04337522      -0.00639632       0.22908084       0.11553188       0.46824676      -0.08794048
V        5.99068832      -0.02610501       3.08259082      -0.81522857      -0.14347037      -0.86660337      -0.38139939       0.03286863      -0.64349973
V        7.39149618       1.37816465       4.45500040       0.25961432       0.81225376       0.64760201       0.85188925       0.50816387       0.00825181
V        6.02119207      -0.03112223       5.95693350      -0.36220121       0.16648491       0.48459536       0.02294910      -0.07263971       0.19660890
V        7.47099352       1.57407629       7.55952644      -0.11054904      -0.32956988      -0.37051767      -0.02364522      -0.00904667      -0.01427337
Cr       5.97537661       3.13577724       0.02434795      -0.05319432      -0.80618528      -0.09474110       0.19575739      -1.05218637      -0.28372246
V        7.50266171       4.43538904       1.49857104      -0.06215440       0.42017684       0.03173760      -0.04699261      -0.05671198      -0.01553348
V        5.99475145       3.00321770       2.99480081      -0.47843939      -0.55450681      -0.29348342      -0.71217990      -0.26236969      -0.10852122
V        7.47916937       4.45103693       4.45342064       0.05495588       0.08784650       0.55398645       0.06054352       0.00962175       0.07012788
V        5.91036463       2.98841166       5.93573332       0.74971060       0.04291431       0.27439568       0.25513196       0.14478587      -0.00482607
V        7.48532248       4.43896151       7.52891684      -0.31292105       0.10861977      -0.11077658      -0.03073121       0.04297534       0.02168401
V        5.95589161       6.05459452       0.02436645       0.46540440      -0.16182245      -0.06311649       0.32777429      -0.29606450      -0.35363269
V        7.41954279       7.41070127       1.50051498       0.30869539       0.37841808      -0.29652386       0.34158313       0.29501185       0.33146188
Cr       5.98941088       5.98759365       3.04921079      -0.29814961       0.24181978      -0.58649335      -0.05325055      -0.11446691      -0.06929344
Cr       7.51111174       7.41838360       4.48602629       0.69354128      -0.10818763       0.11181117      -0.14461294       0.10080908      -0.00157833
V        6.01798964       5.98756075       5.91805458      -0.52643422      -0.15454701       0.49375633       0.01746300       0.00257210      -0.00837138
V        7.52606821       7.48509455       7.52629995      -0.06825715       0.12680072      -0.04616588       0.02497455       0.02604754       0.05885508
53
Lattice="8.96924313065 1.25181351975e-07 5.42077165329e-08 1.2518135246e-07 8.96924294695 -2.20964602923e-07 5.42077168957e-08 -2.20964603612e-07 8.96924288464" Properties=species:S:1:pos:R:3:force:R:3:forces:R:3 config_type=vacancy_aa parent_id=99999999 generation=9 step=22 variance=0.7041224241256714 loss=0.7041224241256714 energy=-476.86444742038395 pbc="T T T"
V        1.39957297       1.29071701       1.55477250       0.14829595       0.46004729      -0.28975717      -0.07949260       1.34392047      -0.55638039
Cr      -0.07410924      -0.01727416       2.75519347      -0.51535368      -0.13780267       1.06709851       0.07567485      -0.40609798       1.73073614
V        1.43276942       1.44191480       4.42767334      -0.19286088      -0.34778100       0.38823186      -0.00780464      -0.04894769       0.01357096
V        0.01662808      -0.00399473       6.15428019      -0.21392474       0.41403992      -0.93193273      -0.19985257      -0.04432580      -1.12725389
V        1.49673843       1.62729537       7.38690567      -0.24304183      -0.71283265       0.20663291      -0.09269991      -0.71772134       0.61157268
Cr      -0.05456651       2.97439766       0.02821192       0.28060986       0.88840321      -0.30915680       0.13131322       0.43260694      -0.12193000
Cr       1.58919179       4.55949450       1.76918423      -0.33689564      -0.28774989      -1.26855502      -0.31917340      -0.51621556      -1.54976058
Cr      -0.02652458       2.89362478       2.95820093       0.46704783      -0.35997683       0.07709615       0.11135238       0.10146683      -0.04312946
V        1.51029801       4.44244337       4.46779680      -0.56463046       0.57678716      -0.54147007      -0.04109889       0.02369596       0.06308137
V       -0.00983999       2.95711637       5.87971115      -0.10815209      -0.12850223       0.50805648      -0.26009381      -0.03097852       0.67596996
V        1.45831597       4.60504389       7.42190838       0.79926237      -1.04959519      -0.31346454       0.52725101      -0.94084901       0.57322305
V        0.06883273       5.93887663       0.07351632      -0.46040430      -0.19225416       0.45592811      -0.11800191      -0.22072534       0.01316678
V        1.54632497       7.50564003       1.44997036      -0.15057696      -0.40714122       0.00911311      -0.36605024      -0.65981412       0.35582551
V        0.01129545       5.98279953       3.03252411      -0.05756888      -0.26943616      -0.06254843      -0.02241740       0.02945655       0.04649897
V        1.50435305       7.49270582       4.48305273       0.34880017      -0.17252294       0.29017682       0.00963736       0.02205229       0.06310893
V        0.06863548       5.92088175       6.07062292      -0.71395387       0.47971210      -0.55070967      -0.51938277       0.77637470      -0.63938278
V        1.57619274       7.48492241       7.50302696       0.02472108      -0.18790468      -0.10557662      -0.02694853       0.03229347       0.02072174
V        2.93701196      -0.05498649       0.08796794       0.87167760       0.96903230      -0.46005701       0.68465132       1.20978248      -0.82419884
Cr       4.45679951       1.52961278       1.48502707       0.30816640       0.02867324      -0.04459376      -0.02581209       0.05191027       0.00136631
V        2.98355007       0.01394232       2.98367095      -0.29918421       0.12741329      -0.37576425      -0.01235413       0.00212970       0.03230008
V        4.37219095       1.50493896       4.53650904       0.81074454      -0.32917576      -0.39106473       0.35372543      -0.31296474      -0.31777740
Cr       2.93815207       0.00683932       5.98534393      -0.29341095       0.29500289      -0.00132027       0.02400554       0.00963846       0.01651419
V        4.47437191       1.52709854       7.49127245      -0.14301887      -0.17177829      -0.36783257      -0.07998630      -0.02104604      -0.00254192
V        2.92437530       3.01972985       0.03634562      -0.30686078      -0.18600948       0.35541910       0.06702622      -0.08557169      -0.06949683
V        4.49516535       4.54952574       1.48861778       0.41092260      -0.43353180      -0.12520494      -0.07371234       0.02168773       0.00919910
Cr       3.00095654       2.96590996       2.97735763       0.10779556      -0.01222984      -0.03255134       0.04111781       0.04419686      -0.06814297
Cr       4.50603199       4.50647783       4.41463661      -0.16785562       0.36617525       0.15551803      -0.04246417      -0.08129953      -0.02970019
V        2.96955180       2.98065543       5.93478060       0.35194754       0.15238579       0.75952518       0.21852708       0.48727116       0.19589561
V        4.53678560       4.48054552       7.34979630       0.05073173       0.58047811      -0.12829323      -0.29800904       0.28795382       1.07127213
Cr       3.00542688       6.03061581      -0.03466687      -0.40046280       0.60773446       0.47343129       0.00420217      -0.00817927       0.02991965
V        4.40540218       7.51868343       1.44026470       0.76713648      -0.03287136      -0.00703085       0.55784291      -0.78237903       0.54571277
Cr       3.01045585       5.91865444       2.95144606      -0.41195699       0.37766194       0.89007771      -0.09837286       0.35847291       0.19598365
V        4.43746805       7.46762514       4.45967197       0.72768205      -0.39213920       0.24823748       0.17526774      -0.16370681      -0.10393813
V        3.04591322       5.97687340       5.92375231       0.07528902      -0.01929814       0.08002642      -0.02369123      -0.07014968      -0.02065589
V        4.46411180       7.52614260       7.44910908       0.42346786      -0.37038276       0.07841147       0.03749784      -0.08568169      -0.00167211
V        6.03477955       0.00676380       0.00295224      -0.79520279      -0.24327959       0.16535969      -0.78608620       0.47049984       0.18395790
V        7.51184607       1.50710344       1.47910237      -0.04337522      -0.00639632       0.22908084       0.00899126       0.19390532      -0.16242217
V        5.97308254      -0.04433346       3.04161644      -0.81522857      -0.14347037      -0.86660337      -0.23904310       0.22900435      -0.34199804
V        7.39559650       1.40021300       4.45470238       0.25961432       0.81225376       0.64760201       0.73668957       0.28149021      -0.08078407
V        6.01913261      -0.04107860       5.97408104      -0.36220121       0.16648491       0.48459536       0.02125933       0.02567748      -0.02191983
V        7.46794796       1.57905066       7.55717897      -0.11054904      -0.32956988      -0.37051767      -0.00399105      -0.05197547       0.00714362
Cr       5.97156763       3.12970901       0.00794465      -0.05319432      -0.80618528      -0.09474110       0.20649324      -1.00733542      -0.20526436
V        7.49976110       4.43177891       1.49617732      -0.06215440       0.42017684       0.03173760      -0.03977629       0.01326386       0.03532572
V        5.98947716       3.00427604       2.99140477      -0.47843939      -0.55450681      -0.29348342      -0.68800879      -0.22373995      -0.08807053
V        7.49000311       4.45069599       4.45798922       0.05495588       0.08784650       0.55398645      -0.00993726       0.03001584       0.02398155
V        5.94083929       3.00631571       5.92640877       0.74971060       0.04291431       0.27439568       0.03141208       0.02202468       0.01797369
V        7.48273754       4.44715214       7.52551699      -0.31292105       0.10861977      -0.11077658       0.00393279      -0.01301131       0.01397295
V        5.98292828       6.04753160       0.03325348       0.46540440      -0.16182245      -0.06311649       0.09785715      -0.29489887      -0.46199498
V        7.41250563       7.41159201       1.49795258       0.30869539       0.37841808      -0.29652386       0.35167789       0.26969478       0.34283623
Cr       5.97684097       5.97319317       3.03650403      -0.29814961       0.24181978      -0.58649335       0.03830238      -0.00923426       0.00620574
Cr       7.49064016       7.43046522       4.48291636       0.69354128      -0.10818763       0.11181117      -0.05292238       0.02300493      -0.01053335
V        6.02533960       5.99440718       5.91952610      -0.52643422      -0.15454701       0.49375633      -0.02188483      -0.00240590      -0.02374812
V        7.52164268       7.48312664       7.53919315      -0.06825715       0.12680072      -0.04616588       0.03335962       0.00576302      -0.02434031
53
Lattice="8.96924313065 1.25181351975e-07 5.42077165329e-08 1.2518135246e-07 8.96924294695 -2.20964602923e-07 5.42077168957e-08 -2.20964603612e-07 8.96924288464" Properties=species:S:1:pos:R:3:force:R:3:forces:R:3 config_type=vacancy_aa parent_id=99999999 generation=9 step=33 variance=0.8246126174926758 loss=0.8246126174926758 energy=-476.8349499212511 pbc="T T T"
V        1.40699649       1.29732823       1.56503880       0.14829595       0.46004729      -0.28975717      -0.18657117       1.26597428      -0.58541739
Cr      -0.08427510      -0.04806329       2.75122952      -0.51535368      -0.13780267       1.06709851       0.11354774      -0.12486176       1.62534845
V        1.43039382       1.43077135       4.42811775      -0.19286088      -0.34778100       0.38823186       0.01608493       0.02095422      -0.00194384
V        0.01409237      -0.00689060       6.15696621      -0.21392474       0.41403992      -0.93193273      -0.21915567      -0.03571811      -1.17393672
V        1.47146213       1.64595127       7.34642124      -0.24304183      -0.71283265       0.20663291       0.09763388      -0.79060763       0.80856073
Cr      -0.03225545       3.03259468      -0.01556081       0.28060986       0.88840321      -0.30915680       0.00661510       0.15594918       0.06917806
Cr       1.61799634       4.54954863       1.76292014      -0.33689564      -0.28774989      -1.26855502      -0.47192046      -0.44843447      -1.44821739
Cr      -0.01326332       2.89120507       2.94646049       0.46704783      -0.35997683       0.07709615       0.03968311       0.08415836       0.01736501
V        1.50605762       4.44721222       4.47242594      -0.56463046       0.57678716      -0.54147007       0.03716579      -0.00752025      -0.02901900
V       -0.01451017       2.95592022       5.88138437      -0.10815209      -0.12850223       0.50805648      -0.25439006       0.04896181       0.58752835
V        1.44606721       4.61530304       7.40292597       0.79926237      -1.04959519      -0.31346454       0.66792321      -1.04070890       0.66746771
V        0.04681492       5.89577150       0.07371606      -0.46040430      -0.19225416       0.45592811       0.02432423       0.03689567       0.01160939
V        1.55218172       7.48723507       1.42932820      -0.15057696      -0.40714122       0.00911311      -0.46569380      -0.55102086       0.49817175
V        0.00923473       5.98676443       3.03955746      -0.05756888      -0.26943616      -0.06254843       0.00800808       0.02183306      -0.02642103
V        1.50668848       7.50064802       4.49042368       0.34880017      -0.17252294       0.29017682      -0.00386678       0.00162888       0.02630543
V        0.07441431       5.91941595       6.06944370      -0.71395387       0.47971210      -0.55070967      -0.60664213       0.82910842      -0.66506052
V        1.57058287       7.48364544       7.50806189       0.02472108      -0.18790468      -0.10557662      -0.02065343       0.03790070       0.00202406
V        2.92838025      -0.06360696       0.09325390       0.87167760       0.96903230      -0.46005701       0.68073887       1.28121006      -0.86683196
Cr       4.45100737       1.54620171       1.49225175       0.30816640       0.02867324      -0.04459376      -0.00360879      -0.02817615       0.00816846
V        2.98533559       0.01370027       2.98659635      -0.29918421       0.12741329      -0.37576425      -0.02237407      -0.00452466       0.00706082
V        4.37857771       1.49694240       4.55521107       0.81074454      -0.32917576      -0.39106473       0.28199047      -0.24611726      -0.40378755
Cr       2.94507241       0.02452662       5.99173450      -0.29341095       0.29500289      -0.00132027      -0.01821456      -0.09953526      -0.04312696
V        4.47103214       1.51732302       7.48750734      -0.14301887      -0.17177829      -0.36783257      -0.05615499       0.04202465       0.08086734
V        2.91414523       3.01924968       0.03849121      -0.30686078      -0.18600948       0.35541910       0.12284975      -0.04759269      -0.12686071
V        4.47978354       4.55889511       1.50174892       0.41092260      -0.43353180      -0.12520494       0.08076051      -0.01362058      -0.07113766
Cr       3.00556064       2.97349286       2.96238899       0.10779556      -0.01222984      -0.03255134      -0.01128539      -0.01257647       0.07147418
Cr       4.49300003       4.49573135       4.41033363      -0.16785562       0.36617525       0.15551803       0.05189452      -0.01593567       0.02470033
V        2.98919797       2.98346853       5.95167923       0.35194754       0.15238579       0.75952518       0.05714224       0.48349211       0.02984607
V        4.53761864       4.50609207       7.34991598       0.05073173       0.58047811      -0.12829323      -0.28013843       0.10121277       1.09767413
Cr       3.00738263       6.02698421      -0.03849954      -0.40046280       0.60773446       0.47343129      -0.00512431       0.00822053       0.03945805
V        4.40863705       7.50079823       1.43123889       0.76713648      -0.03287136      -0.00703085       0.51150280      -0.62236172       0.62847680
Cr       3.00919175       5.96982002       2.97727323      -0.41195699       0.37766194       0.89007771      -0.05466767      -0.02787604      -0.01859856
V        4.45521069       7.43705940       4.44298601       0.72768205      -0.39213920       0.24823748       0.02714211       0.10257286       0.00748051
V        3.04393959       5.97654581       5.92111492       0.07528902      -0.01929814       0.08002642      -0.01217258      -0.02705718      -0.00943391
V        4.47041464       7.51742268       7.44881153       0.42346786      -0.37038276       0.07841147       0.00214229      -0.01342383       0.00548415
V        6.02614117       0.00955205       0.02393912      -0.79520279      -0.24327959       0.16535969      -0.71756554       0.46662015       0.08392820
V        7.51734972       1.53742170       1.46149766      -0.04337522      -0.00639632       0.22908084      -0.00954526       0.02009488      -0.03117002
V        5.93814087      -0.02522441       3.04300666      -0.81522857      -0.14347037      -0.86660337       0.02571432       0.15802668      -0.36331257
V        7.38519478       1.41241598       4.47683525       0.25961432       0.81225376       0.64760201       0.80903882       0.14290474      -0.28809068
V        6.01935625      -0.04074893       5.97452927      -0.36220121       0.16648491       0.48459536      -0.00516332      -0.00419130      -0.01097175
V        7.47412682       1.57749140       7.55967474      -0.11054904      -0.32956988      -0.37051767      -0.02541484      -0.05366629       0.02665941
Cr       5.97427702       3.13627243       0.00934565      -0.05319432      -0.80618528      -0.09474110       0.17015927      -1.01486588      -0.17367184
V        7.49530411       4.43736458       1.50501907      -0.06215440       0.42017684       0.03173760      -0.03064563      -0.04298999       0.00833768
V        5.99031019       2.99616337       3.00259304      -0.47843939      -0.55450681      -0.29348342      -0.68057430      -0.15474117      -0.15827879
V        7.49379969       4.45454121       4.46063375       0.05495588       0.08784650       0.55398645      -0.01312951      -0.01988776       0.01215207
V        5.94879770       3.00951219       5.93162537       0.74971060       0.04291431       0.27439568      -0.03175933       0.01240041       0.05783685
V        7.48142672       4.44310713       7.52163363      -0.31292105       0.10861977      -0.11077658      -0.00073175       0.02294949      -0.01983004
V        6.00017738       6.04419661       0.02741719       0.46540440      -0.16182245      -0.06311649      -0.02046425      -0.28586978      -0.43452930
V        7.40146732       7.39758205       1.50502622       0.30869539       0.37841808      -0.29652386       0.36469302       0.35118002       0.31912965
Cr       5.98093748       5.96706867       3.02511001      -0.29814961       0.24181978      -0.58649335      -0.00013047       0.05080308       0.06620833
Cr       7.47985077       7.44086123       4.47900534       0.69354128      -0.10818763       0.11181117       0.00060559      -0.01411995       0.00766212
V        6.02799511       5.99310255       5.91606855      -0.52643422      -0.15454701       0.49375633      -0.00670367      -0.01319938      -0.00339608
V        7.52480412       7.48391533       7.53079319      -0.06825715       0.12680072      -0.04616588       0.03710194       0.01412394       0.05687981
53
Lattice="8.96924313065 1.25181351975e-07 5.42077165329e-08 1.2518135246e-07 8.96924294695 -2.20964602923e-07 5.42077168957e-08 -2.20964603612e-07 8.96924288464" Properties=species:S:1:pos:R:3:force:R:3:forces:R:3 config_type=vacancy_aa parent_id=99999999 generation=9 step=44 variance=0.8869858384132385 loss=0.8869858384132385 energy=-476.80977629798423 pbc="T T T"
V        1.41202629       1.29888380       1.56056857       0.14829595       0.46004729      -0.28975717      -0.23608002       1.24645209      -0.56416333
Cr      -0.09591353      -0.07058315       2.73428655      -0.51535368      -0.13780267       1.06709851       0.22648220       0.07217824       1.66884851
V        1.43462634       1.43746960       4.43229198      -0.19286088      -0.34778100       0.38823186      -0.00499770      -0.06243666      -0.10197197
V        0.02479593      -0.01540211       6.16512537      -0.21392474       0.41403992      -0.93193273      -0.31321287       0.01177725      -1.22286487
V        1.47226131       1.64428437       7.31526041      -0.24304183      -0.71283265       0.20663291       0.11344177      -0.76015341       0.96247047
Cr      -0.03652672       3.07473540      -0.00850739       0.28060986       0.88840321      -0.30915680       0.05502600      -0.03545898       0.01881906
Cr       1.60840094       4.54582119       1.76464915      -0.33689564      -0.28774989      -1.26855502      -0.39459419      -0.42623472      -1.47969818
Cr      -0.00762524       2.89151454       2.94135952       0.46704783      -0.35997683       0.07709615       0.00973307       0.06881115       0.04076463
V        1.51403832       4.44561291       4.46862507      -0.56463046       0.57678716      -0.54147007      -0.02733673       0.00658858      -0.00388201
V       -0.02245505       2.94886279       5.87395906      -0.10815209      -0.12850223       0.50805648      -0.22017562       0.11364149       0.62741137
V        1.44184530       4.60661650       7.38463354       0.79926237      -1.04959519      -0.31346454       0.65735364      -0.95259166       0.74620885
V        0.04787651       5.90051556       0.06940918      -0.46040430      -0.19225416       0.45592811       0.00747774       0.00119513       0.03540832
V        1.54987860       7.48082590       1.42067790      -0.15057696      -0.40714122       0.00911311      -0.45565543      -0.52924341       0.56605417
V        0.01695710       5.98037863       3.04184556      -0.05756888      -0.26943616      -0.06254843      -0.04852555       0.07305288      -0.00851625
V        1.49583066       7.50679731       4.49991560       0.34880017      -0.17252294       0.29017682       0.06760389      -0.05862667      -0.04213902
V        0.06119731       5.92724276       6.07057905      -0.71395387       0.47971210      -0.55070967      -0.51820779       0.74963278      -0.66389281
V        1.56756878       7.48455715       7.50967455       0.02472108      -0.18790468      -0.10557662       0.01097721       0.00287578      -0.00556509
V        2.92618251      -0.06561097       0.09657498       0.87167760       0.96903230      -0.46005701       0.70259595       1.28345752      -0.91311777
Cr       4.45352602       1.53936088       1.48825955       0.30816640       0.02867324      -0.04459376      -0.04098706       0.01851397      -0.02047776
V        2.97955108       0.01198805       2.98673415      -0.29918421       0.12741329      -0.37576425       0.00908093      -0.02912947      -0.01190142
V        4.38521290       1.47966933       4.56149244       0.81074454      -0.32917576      -0.39106473       0.24774085      -0.13340120      -0.49915633
Cr       2.95283771       0.01063476       5.97498369      -0.29341095       0.29500289      -0.00132027      -0.03993692      -0.03048057       0.03111882
V        4.46506691       1.52334785       7.49492311      -0.14301887      -0.17177829      -0.36783257      -0.00014172      -0.03009202      -0.02239280
V        2.92465305       3.01530910       0.02140561      -0.30686078      -0.18600948       0.35541910       0.03652514      -0.02203211      -0.04852755
V        4.48681307       4.55416727       1.49252009       0.41092260      -0.43353180      -0.12520494      -0.00522606       0.03045133      -0.00242792
Cr       3.01073503       2.97517085       2.96782637       0.10779556      -0.01222984      -0.03255134      -0.02448690      -0.04406498       0.00579182
Cr       4.50783443       4.49755049       4.41415930      -0.16785562       0.36617525       0.15551803      -0.05469277      -0.01960657      -0.01943016
V        2.99171209       2.98080182       5.93552017       0.35194754       0.15238579       0.75952518       0.08223121       0.51438463       0.12055223
V        4.54076385       4.52008820       7.34877110       0.05073173       0.58047811      -0.12829323      -0.35489553      -0.04153612       1.06441092
Cr       3.00255418       6.02308369      -0.02086253      -0.40046280       0.60773446       0.47343129       0.02800173       0.01289982      -0.07274836
V        4.41356468       7.49538422       1.42603445       0.76713648      -0.03287136      -0.00703085       0.47190380      -0.63161665       0.61107683
Cr       3.00592732       5.96546459       2.97229433      -0.41195699       0.37766194       0.89007771       0.01623833       0.00182643       0.02219632
V        4.46642208       7.44888783       4.43412113       0.72768205      -0.39213920       0.24823748      -0.06072690       0.00973581       0.01710344
V        3.03227782       5.97728729       5.93177652       0.07528902      -0.01929814       0.08002642       0.08339532      -0.00658464      -0.10980453
V        4.47470236       7.51254225       7.44739294       0.42346786      -0.37038276       0.07841147      -0.02327190       0.00349684      -0.00051196
V        6.02942133       0.01604524       0.03203944      -0.79520279      -0.24327959       0.16535969      -0.72869796       0.38019729       0.00347885
V        7.52758455       1.54881263       1.45472586      -0.04337522      -0.00639632       0.22908084      -0.02634679      -0.00318197      -0.04698107
V        5.93839169       0.01444796       2.98335600      -0.81522857      -0.14347037      -0.86660337       0.01154914      -0.06905881       0.06219045
V        7.38158894       1.42348695       4.47974873       0.25961432       0.81225376       0.64760201       0.82478708       0.02182689      -0.34405765
V        6.02165365      -0.04291058       5.97183847      -0.36220121       0.16648491       0.48459536      -0.00156308      -0.00301299      -0.01408482
V        7.47410631       1.55889559       7.56778383      -0.11054904      -0.32956988      -0.37051767       0.00269174       0.03801996      -0.01718813
Cr       5.96789885       3.14230895      -0.00173436      -0.05319432      -0.80618528      -0.09474110       0.21489714      -1.06669462      -0.11945084
V        7.48736668       4.44324875       1.50882316      -0.06215440       0.42017684       0.03173760      -0.00842996      -0.04894481      -0.01151615
V        5.97429276       2.98471260       2.99733400      -0.47843939      -0.55450681      -0.29348342      -0.56012642      -0.05188826      -0.12772720
V        7.49056530       4.44803476       4.46008635       0.05495588       0.08784650       0.55398645      -0.01137607       0.00309549       0.00264343
V        5.94572067       3.00568867       5.94085169       0.74971060       0.04291431       0.27439568      -0.00523668       0.00739273       0.00183893
V        7.48231697       4.43975878       7.52018976      -0.31292105       0.10861977      -0.11077658       0.00531763       0.02890224      -0.05007982
V        5.99995565       6.01186657      -0.00972569       0.46540440      -0.16182245      -0.06311649       0.00699236       0.01652626      -0.15554221
V        7.40449047       7.39733410       1.51977599       0.30869539       0.37841808      -0.29652386       0.27298519       0.24785499       0.13273346
Cr       5.97810793       5.96951485       3.03321528      -0.29814961       0.24181978      -0.58649335       0.00848361       0.03122464      -0.01000558
Cr       7.47611713       7.44140148       4.47366762       0.69354128      -0.10818763       0.11181117       0.02835002      -0.00365319      -0.00536891
V        6.03154325       5.98827600       5.91552067      -0.52643422      -0.15454701       0.49375633      -0.02516337       0.04316834      -0.01943950
V        7.53134298       7.48566818       7.54529095      -0.06825715       0.12680072      -0.04616588      -0.01177034       0.02054413      -0.00648925
53
Lattice="8.96924313065 1.25181351975e-07 5.42077165329e-08 1.2518135246e-07 8.96924294695 -2.20964602923e-07 5.42077168957e-08 -2.20964603612e-07 8.96924288464" Properties=species:S:1:pos:R:3:force:R:3:forces:R:3 config_type=vacancy_aa parent_id=99999999 generation=9 step=55 variance=0.9504755735397339 loss=0.9504755735397339 energy=-476.7366866800933 pbc="T T T"
V        1.42280293       1.30677044       1.55975544       0.14829595       0.46004729      -0.28975717      -0.29646143       1.25708151      -0.57453853
Cr      -0.12921447      -0.10181234       2.68764043      -0.51535368      -0.13780267       1.06709851       0.48779738       0.38660181       1.90280271
V        1.43735397       1.43610239       4.42509270      -0.19286088      -0.34778100       0.38823186       0.00320157      -0.02735311      -0.01321339
V        0.02776459      -0.01411233       6.17201662      -0.21392474       0.41403992      -0.93193273      -0.32794636       0.01043971      -1.20512545
V        1.46769667       1.64662230       7.32620478      -0.24304183      -0.71283265       0.20663291       0.19087379      -0.74186265       0.88387632
Cr      -0.04022469       3.06755638      -0.00669736       0.28060986       0.88840321      -0.30915680       0.06531636       0.01112385       0.02125613
Cr       1.60079122       4.56253719       1.76470065      -0.33689564      -0.28774989      -1.26855502      -0.33782429      -0.52940154      -1.45737875
Cr      -0.01501149       2.88979077       2.93813062       0.46704783      -0.35997683       0.07709615       0.05140185       0.07587975       0.05956864
V        1.51213455       4.44549799       4.47005129      -0.56463046       0.57678716      -0.54147007      -0.02507557       0.01039648      -0.00139300
V       -0.02145312       2.94323802       5.88675928      -0.10815209      -0.12850223       0.50805648      -0.21397345       0.17498237       0.52420223
V        1.43715668       4.61043406       7.38554621       0.79926237      -1.04959519      -0.31346454       0.68940258      -0.97883713       0.76848924
V        0.05455953       5.89554596       0.07323758      -0.46040430      -0.19225416       0.45592811      -0.02303955       0.02261080      -0.02506715
V        1.53804779       7.49094963       1.42058539      -0.15057696      -0.40714122       0.00911311      -0.37519249      -0.62517810       0.51974255
V        0.01914586       5.98794985       3.04645848      -0.05756888      -0.26943616      -0.06254843      -0.05528001       0.02776586       0.01618930
V        1.50650847       7.50082636       4.51269007       0.34880017      -0.17252294       0.29017682      -0.00833780      -0.01301067      -0.07713673
V        0.04249462       5.92911482       6.09497070      -0.71395387       0.47971210      -0.55070967      -0.37648392       0.74596882      -0.86344564
V        1.56545770       7.48226500       7.51170635       0.02472108      -0.18790468      -0.10557662       0.01633871       0.00200291       0.00503254
V        2.92428684      -0.07087073       0.10060760       0.87167760       0.96903230      -0.46005701       0.69200367       1.34008360      -0.95328474
Cr       4.44480038       1.54002416       1.49616838       0.30816640       0.02867324      -0.04459376      -0.00256331      -0.01500284      -0.04178276
V        2.97973371       0.01193060       2.98074698      -0.29918421       0.12741329      -0.37576425      -0.00149098      -0.01806926       0.04544555
V        4.41143990       1.46490943       4.55180073       0.81074454      -0.32917576      -0.39106473       0.00246721       0.03573336      -0.34376794
Cr       2.94500422       0.01031235       5.98206472      -0.29341095       0.29500289      -0.00132027       0.01108527      -0.01327728      -0.02339787
V        4.46889257       1.52249372       7.49720907      -0.14301887      -0.17177829      -0.36783257      -0.01197840      -0.02889022      -0.03441898
V        2.93679047       3.00962090       0.00959035      -0.30686078      -0.18600948       0.35541910      -0.05264747       0.03584069       0.04250719
V        4.48404121       4.55988741       1.49036300       0.41092260      -0.43353180      -0.12520494       0.01467933      -0.00952646      -0.03523829
Cr       3.00672245       2.97155309       2.96425891       0.10779556      -0.01222984      -0.03255134      -0.00879468      -0.02380874       0.03713098
Cr       4.50406599       4.49445105       4.40611649      -0.16785562       0.36617525       0.15551803      -0.01739669      -0.00242485       0.01477564
V        3.00890088       3.02305603       5.94694090       0.35194754       0.15238579       0.75952518      -0.01261809       0.14515463      -0.02584526
V        4.53214598       4.51395655       7.35927773       0.05073173       0.58047811      -0.12829323      -0.25224251       0.03284995       0.99382514
Cr       2.99429464       6.02098751      -0.03458478      -0.40046280       0.60773446       0.47343129       0.07691915       0.02977777       0.00243849
V        4.39869595       7.48819780       1.42929661       0.76713648      -0.03287136      -0.00703085       0.60871911      -0.60310054       0.57701302
Cr       3.00894523       5.96810865       2.97650361      -0.41195699       0.37766194       0.89007771      -0.02801787      -0.02239289      -0.02131050
V        4.46295547       7.44792175       4.43469095       0.72768205      -0.39213920       0.24823748      -0.01268490       0.01047018      -0.01151633
V        3.04621124       5.97487926       5.91789198       0.07528902      -0.01929814       0.08002642      -0.04523919       0.00916307       0.01452708
V        4.46982002       7.51425171       7.44566393       0.42346786      -0.37038276       0.07841147      -0.00509976      -0.01485900       0.00045221
V        6.02836084       0.00311695       0.04301589      -0.79520279      -0.24327959       0.16535969      -0.76586318       0.48382160      -0.09218862
V        7.51123714       1.55671525       1.44310975      -0.04337522      -0.00639632       0.22908084       0.00146287      -0.02969084      -0.01480873
V        5.93491697       0.01153651       2.99515462      -0.81522857      -0.14347037      -0.86660337       0.05773009      -0.08912230      -0.02057669
V        7.38398933       1.42778695       4.48290682       0.25961432       0.81225376       0.64760201       0.80750918      -0.03114532      -0.33746338
V        6.01894665      -0.04249671       5.97631454      -0.36220121       0.16648491       0.48459536       0.02094742       0.00735996      -0.04352093
V        7.47118998       1.55890369       7.56787205      -0.11054904      -0.32956988      -0.37051767      -0.00282468       0.02106965       0.00013102
Cr       5.96417522       3.13088417       0.01014992      -0.05319432      -0.80618528      -0.09474110       0.22567379      -0.96568203      -0.18874380
V        7.48483753       4.44243479       1.50768924      -0.06215440       0.42017684       0.03173760      -0.00322104      -0.00068006      -0.00719717
V        5.97221041       2.97473454       2.99875784      -0.47843939      -0.55450681      -0.29348342      -0.56093842       0.03502404      -0.12245739
V        7.48893929       4.45111799       4.46088123       0.05495588       0.08784650       0.55398645      -0.01376322      -0.03962414       0.01259744
V        5.94877148       3.00981498       5.94534874       0.74971060       0.04291431       0.27439568      -0.01285283      -0.02823669      -0.02925056
V        7.47915554       4.44511938       7.51222181      -0.31292105       0.10861977      -0.11077658       0.00067525      -0.03042994       0.03814726
V        6.01500273       6.02726030      -0.02547515       0.46540440      -0.16182245      -0.06311649      -0.06767511      -0.05527737      -0.00297442
V        7.45537758       7.43495083       1.51835477       0.30869539       0.37841808      -0.29652386      -0.09366608      -0.06380581       0.01800478
Cr       5.97705698       5.96924162       3.02235341      -0.29814961       0.24181978      -0.58649335       0.00452842       0.03295768       0.06704446
Cr       7.47845840       7.43581867       4.47752380       0.69354128      -0.10818763       0.11181117      -0.00747647       0.00071783      -0.02502069
V        6.02685928       5.98636913       5.90997553      -0.52643422      -0.15454701       0.49375633      -0.02847905       0.03502726      -0.01392686
V        7.52437782       7.48599577       7.53460360      -0.06825715       0.12680072      -0.04616588       0.01841573       0.02078419       0.04079042
53
Lattice="8.96924313065 1.25181351975e-07 5.42077165329e-08 1.2518135246e-07 8.96924294695 -2.20964602923e-07 5.42077168957e-08 -2.20964603612e-07 8.96924288464" Properties=species:S:1:pos:R:3:force:R:3:forces:R:3 config_type=vacancy_aa parent_id=99999999 generation=9 step=66 variance=0.995008111000061 loss=0.995008111000061 energy=-476.75657669650883 pbc="T T T"
V        1.42146921       1.30796456       1.55475593       0.14829595       0.46004729      -0.28975717      -0.32072252       1.23550677      -0.50345540
Cr      -0.13363336      -0.10307394       2.69703031      -0.51535368      -0.13780267       1.06709851       0.49989182       0.38278139       1.84318542
V        1.44005322       1.43499160       4.42403555      -0.19286088      -0.34778100       0.38823186       0.01640200       0.00828806       0.02558412
V        0.02790413      -0.01116698       6.17388916      -0.21392474       0.41403992      -0.93193273      -0.32290089      -0.02587719      -1.22335291
V        1.45716286       1.62732208       7.34067535      -0.24304183      -0.71283265       0.20663291       0.26469070      -0.63508415       0.79588145
Cr      -0.02784621       3.07045698       0.00094716       0.28060986       0.88840321      -0.30915680       0.00424159      -0.02423665       0.00666979
Cr       1.60399520       4.56170654       1.76549089      -0.33689564      -0.28774989      -1.26855502      -0.35376653      -0.53046072      -1.46132636
Cr      -0.01046991       2.89011383       2.94297004       0.46704783      -0.35997683       0.07709615       0.02348753       0.06898688       0.03932448
V        1.51038682       4.45828056       4.46249533      -0.56463046       0.57678716      -0.54147007      -0.01792872      -0.04839065       0.06208336
V       -0.01709062       2.93815660       5.88274050      -0.10815209      -0.12850223       0.50805648      -0.21682686       0.18928170       0.57405370
V        1.43974090       4.59651947       7.38522816       0.79926237      -1.04959519      -0.31346454       0.66967535      -0.87409991       0.78095198
V        0.05804813       5.89724350       0.07163370      -0.46040430      -0.19225416       0.45592811      -0.00397441       0.01097635      -0.01062580
V        1.54634166       7.49422073       1.43070805      -0.15057696      -0.40714122       0.00911311      -0.46060163      -0.68214417       0.50526303
V        0.01124527       5.98999882       3.04244757      -0.05756888      -0.26943616      -0.06254843      -0.02269655       0.03224256       0.01927124
V        1.50176764       7.50055504       4.50677347       0.34880017      -0.17252294       0.29017682       0.01113258       0.00630430      -0.01958588
V        0.04323753       5.93043995       6.09871483      -0.71395387       0.47971210      -0.55070967      -0.37663436       0.71436995      -0.86389077
V        1.57255220       7.48156023       7.51145601       0.02472108      -0.18790468      -0.10557662      -0.01602332      -0.00460005       0.01078017
V        2.91635466      -0.07887628       0.11330906       0.87167760       0.96903230      -0.46005701       0.76205873       1.38551176      -1.04474390
Cr       4.44302082       1.54380119       1.49251986       0.30816640       0.02867324      -0.04459376      -0.00052440      -0.02145053      -0.01028914
V        2.97639489       0.00812352       2.98734975      -0.29918421       0.12741329      -0.37576425       0.04208459       0.03410849       0.00955726
V        4.42901325       1.45594215       4.54121208       0.81074454      -0.32917576      -0.39106473      -0.14228916       0.14958373      -0.25580403
Cr       2.95138025       0.01602468       5.97573042      -0.29341095       0.29500289      -0.00132027      -0.02990042      -0.04470732       0.02454733
V        4.46195602       1.52101064       7.49274874      -0.14301887      -0.17177829      -0.36783257       0.00910035      -0.02054866      -0.02199661
V        2.93363142       3.00508690       0.00974030      -0.30686078      -0.18600948       0.35541910      -0.03878227       0.03468695       0.02515261
V        4.47929811       4.55920887       1.48349190       0.41092260      -0.43353180      -0.12520494       0.02627314       0.02495695       0.00809044
Cr       3.00812268       2.97035003       2.96656799       0.10779556      -0.01222984      -0.03255134      -0.00715718      -0.01998494       0.01070470
Cr       4.50606441       4.49754906       4.40787601      -0.16785562       0.36617525       0.15551803      -0.03598538       0.00544563       0.01014388
V        3.00988770       3.04025745       5.94216347       0.35194754       0.15238579       0.75952518      -0.01142792      -0.01512865      -0.01262238
V        4.54036617       4.51491165       7.36775589       0.05073173       0.58047811      -0.12829323      -0.31923324       0.02681569       0.93352878
Cr       3.00315666       6.02184296      -0.03398566      -0.40046280       0.60773446       0.47343129       0.03024870       0.00742788      -0.00312833
V        4.40347624       7.48705959       1.43411410       0.76713648      -0.03287136      -0.00703085       0.57384998      -0.58369946       0.55685472
Cr       3.01064730       5.97627115       2.97611094      -0.41195699       0.37766194       0.89007771      -0.04054192      -0.07285210      -0.00844450
V        4.46840048       7.44446468       4.43497324       0.72768205      -0.39213920       0.24823748      -0.05997795       0.04167242      -0.00040801
V        3.03958893       5.98133945       5.92784262       0.07528902      -0.01929814       0.08002642       0.02067092      -0.03299748      -0.05638655
V        4.47286129       7.51536369       7.44467688       0.42346786      -0.37038276       0.07841147      -0.01769684      -0.00039352      -0.00206042
V        6.02220631       0.00811391       0.04447524      -0.79520279      -0.24327959       0.16535969      -0.75267327       0.45933729      -0.09294552
V        7.51655531       1.55514479       1.44693387      -0.04337522      -0.00639632       0.22908084      -0.00672283      -0.00360350      -0.01353410
V        5.94074345       0.00940668       2.99618101      -0.81522857      -0.14347037      -0.86660337       0.04408555      -0.07433636      -0.05206793
V        7.38162565       1.43265676       4.48776484       0.25961432       0.81225376       0.64760201       0.83324230      -0.03822648      -0.37731528
V        6.02185678      -0.04161172       5.97328568      -0.36220121       0.16648491       0.48459536       0.01188094      -0.00859354      -0.01791689
V        7.47078180       1.55574834       7.57707739      -0.11054904      -0.32956988      -0.37051767       0.00800379       0.02825295      -0.02876381
Cr       5.96370602       3.14651990       0.01394954      -0.05319432      -0.80618528      -0.09474110       0.23549777      -1.09025896      -0.21362373
V        7.48278141       4.44476843       1.50682211      -0.06215440       0.42017684       0.03173760       0.03021612       0.00076205       0.01209738
V        5.96946144       2.99031520       2.99353576      -0.47843939      -0.55450681      -0.29348342      -0.53026009      -0.08589610      -0.08673918
V        7.48600674       4.45051336       4.46491957       0.05495588       0.08784650       0.55398645       0.00662374      -0.02427589      -0.01088087
V        5.94474459       3.00575256       5.94549465       0.74971060       0.04291431       0.27439568       0.02360585       0.00209644      -0.01818061
V        7.48168993       4.43549204       7.52221203      -0.31292105       0.10861977      -0.11077658       0.00845818       0.03917077      -0.04578220
V        6.01380062       6.02519655      -0.03330437       0.46540440      -0.16182245      -0.06311649      -0.06777113      -0.05029129       0.03206642
V        7.43995667       7.42373037       1.50866497       0.30869539       0.37841808      -0.29652386      -0.00100204       0.03183919       0.08447551
Cr       5.97363043       5.96806335       3.02076817      -0.29814961       0.24181978      -0.58649335       0.01288380       0.03850910       0.07128242
Cr       7.47515202       7.44110012       4.47085238       0.69354128      -0.10818763       0.11181117       0.01238489      -0.01291267       0.00385642
V        6.02992201       5.98564053       5.90989494      -0.52643422      -0.15454701       0.49375633      -0.03557381       0.03300724      -0.00860969
V        7.52402163       7.48758554       7.53898668      -0.06825715       0.12680072      -0.04616588       0.02890439       0.03312822       0.01907449
53
Lattice="8.96924313065 1.25181351975e-07 5.42077165329e-08 1.2518135246e-07 8.96924294695 -2.20964602923e-07 5.42077168957e-08 -2.20964603612e-07 8.96924288464" Properties=species:S:1:pos:R:3:force:R:3:forces:R:3 config_type=vacancy_aa parent_id=99999999 generation=9 step=77 variance=1.0152431726455688 loss=1.0152431726455688 energy=-476.7517240941454 pbc="T T T"
V        1.42209125       1.31302989       1.55914044       0.14829595       0.46004729      -0.28975717      -0.33335042       1.22982025      -0.50585544
Cr      -0.13591161      -0.09285791       2.70154476      -0.51535368      -0.13780267       1.06709851       0.52438462       0.32443315       1.82168579
V        1.44032729       1.43474782       4.42231369      -0.19286088      -0.34778100       0.38823186       0.00012329       0.01506657       0.04883411
V        0.03840296      -0.00981541       6.17801809      -0.21392474       0.41403992      -0.93193273      -0.37985224      -0.03095087      -1.22595000
V        1.45957315       1.63169396       7.34906578      -0.24304183      -0.71283265       0.20663291       0.26281369      -0.66954970       0.77473897
Cr      -0.04668571       3.05862665      -0.00065004       0.28060986       0.88840321      -0.30915680       0.09867911       0.04107094       0.01575688
Cr       1.60840166       4.57075262       1.75923026      -0.33689564      -0.28774989      -1.26855502      -0.38086158      -0.56438303      -1.43457770
Cr      -0.01194611       2.89500070       2.94539404       0.46704783      -0.35997683       0.07709615       0.01046309       0.04157156       0.03167356
V        1.51122570       4.44671249       4.46095467      -0.56463046       0.57678716      -0.54147007      -0.01619845       0.02940024       0.05679256
V       -0.00964638       2.93785167       5.88198900      -0.10815209      -0.12850223       0.50805648      -0.26708239       0.19565171       0.58900982
V        1.44586992       4.59856224       7.38088894       0.79926237      -1.04959519      -0.31346454       0.64162457      -0.89777648       0.81051183
V        0.06099241       5.89659834       0.07159977      -0.46040430      -0.19225416       0.45592811      -0.01092906       0.01059862      -0.00094459
V        1.55339813       7.50296116       1.43268490      -0.15057696      -0.40714122       0.00911311      -0.53140658      -0.75193214       0.52736950
V        0.01216122       5.98981905       3.04650664      -0.05756888      -0.26943616      -0.06254843      -0.02230384       0.04659327      -0.01913751
V        1.50360942       7.49658632       4.49367476       0.34880017      -0.17252294       0.29017682      -0.00196701       0.03009481       0.07124424
V        0.04863068       5.92938566       6.09605360      -0.71395387       0.47971210      -0.55070967      -0.40202445       0.72301614      -0.85798949
V        1.56778920       7.48027802       7.51620674       0.02472108      -0.18790468      -0.10557662       0.01740531      -0.00713448       0.00265381
V        2.92099690      -0.08200905       0.13015607       0.87167760       0.96903230      -0.46005701       0.73740101       1.44403481      -1.20295143
Cr       4.44582510       1.54171216       1.49159646       0.30816640       0.02867324      -0.04459376      -0.01612651      -0.02842878      -0.00703165
V        2.98041224       0.01096109       2.98718023      -0.29918421       0.12741329      -0.37576425       0.01085440       0.00923074       0.00140828
V        4.41247416       1.46575201       4.51665926       0.81074454      -0.32917576      -0.39106473      -0.00683512       0.07168131      -0.07564327
Cr       2.94820905       0.01630829       5.97657299      -0.29341095       0.29500289      -0.00132027      -0.02584158      -0.03892937       0.00310390
V        4.46263742       1.51662815       7.49127388      -0.14301887      -0.17177829      -0.36783257       0.00357856      -0.01013851      -0.02882926
V        2.94014001       3.00021744       0.00991506      -0.30686078      -0.18600948       0.35541910      -0.07612110       0.05843958       0.02503030
V        4.47820330       4.55442905       1.48664808       0.41092260      -0.43353180      -0.12520494       0.03015626       0.05254690      -0.01397581
Cr       3.00329757       2.97204375       2.97014642       0.10779556      -0.01222984      -0.03255134      -0.01568080      -0.01179226      -0.03712148
Cr       4.50684261       4.49892330       4.40964317      -0.16785562       0.36617525       0.15551803      -0.03646572       0.00372431       0.00273515
V        3.01346612       3.03916526       5.94120646       0.35194754       0.15238579       0.75952518      -0.01841695      -0.01119132       0.00067732
V        4.54620790       4.50723362       7.37296200       0.05073173       0.58047811      -0.12829323      -0.33900869       0.07210302       0.90165138
Cr       3.00504375       6.01703024      -0.03193006      -0.40046280       0.60773446       0.47343129       0.02750566       0.02871365      -0.03109146
V        4.40890455       7.48793459       1.42667878       0.76713648      -0.03287136      -0.00703085       0.55920094      -0.64106894       0.64477336
Cr       3.00972772       5.97300339       2.97266912      -0.41195699       0.37766194       0.89007771      -0.05022981      -0.04189431       0.00891159
V        4.45890188       7.45073366       4.43978786       0.72768205      -0.39213920       0.24823748       0.01849730      -0.00603655      -0.03330612
V        3.04139376       5.97818327       5.92366219       0.07528902      -0.01929814       0.08002642       0.00339591      -0.01877206      -0.04260783
V        4.46130514       7.51975584       7.44089127       0.42346786      -0.37038276       0.07841147       0.06388059      -0.03759583       0.01787598
V        6.01707554       0.00453336       0.04769223      -0.79520279      -0.24327959       0.16535969      -0.71268642       0.47722706      -0.12949789
V        7.50772381       1.55850637       1.45071936      -0.04337522      -0.00639632       0.22908084       0.03061215      -0.03030638      -0.02136931
V        5.95194483      -0.00451734       2.99243426      -0.81522857      -0.14347037      -0.86660337      -0.02893573       0.00852085      -0.00256257
V        7.38623524       1.43080997       4.49578285       0.25961432       0.81225376       0.64760201       0.78600311      -0.02684873      -0.43791720
V        6.02170706      -0.03915919       5.97165012      -0.36220121       0.16648491       0.48459536      -0.00821657      -0.00805836      -0.02033220
V        7.46793652       1.55775726       7.57273245      -0.11054904      -0.32956988      -0.37051767       0.01231669       0.01017481      -0.00638637
Cr       5.96645021       3.14685202       0.02464115      -0.05319432      -0.80618528      -0.09474110       0.21423459      -1.11482906      -0.28450331
V        7.48092699       4.44447708       1.51350498      -0.06215440       0.42017684       0.03173760       0.03286138       0.00236751      -0.02285740
V        5.95235729       2.98278880       2.98843193      -0.47843939      -0.55450681      -0.29348342      -0.41454372      -0.03069628      -0.03541787
V        7.48756647       4.45146084       4.46149540       0.05495588       0.08784650       0.55398645      -0.01025045      -0.04432647       0.01965780
V        5.94823265       3.00768065       5.94222260       0.74971060       0.04291431       0.27439568      -0.00081092      -0.01295679      -0.02207857
V        7.48451042       4.43682289       7.52161217      -0.31292105       0.10861977      -0.11077658       0.01790231       0.02964346      -0.02324119
V        6.01225615       6.02262306      -0.03480694       0.46540440      -0.16182245      -0.06311649      -0.05407755      -0.04151343       0.04381677
V        7.44312143       7.42055893       1.50777495       0.30869539       0.37841808      -0.29652386       0.00590118       0.04372025       0.09655331
Cr       5.97162294       5.96749687       3.02918553      -0.29814961       0.24181978      -0.58649335       0.02199306       0.03781962       0.03153781
Cr       7.47336006       7.44022322       4.47837257       0.69354128      -0.10818763       0.11181117       0.02900605      -0.00936017      -0.02423569
V        6.02989531       5.98907566       5.91093636      -0.52643422      -0.15454701       0.49375633      -0.03539551       0.02154840      -0.00541409
V        7.52567053       7.48835421       7.54335594      -0.06825715       0.12680072      -0.04616588       0.03482454       0.02765687       0.00482189
53
Lattice="8.96924313065 1.25181351975e-07 5.42077165329e-08 1.2518135246e-07 8.96924294695 -2.20964602923e-07 5.42077168957e-08 -2.20964603612e-07 8.96924288464" Properties=species:S:1:pos:R:3:force:R:3:forces:R:3 config_type=vacancy_aa parent_id=99999999 generation=9 step=88 variance=1.0509871244430542 loss=1.0509871244430542 energy=-476.74780088656007 pbc="T T T"
V        1.43189800       1.30997896       1.56383598       0.14829595       0.46004729      -0.28975717      -0.38272518       1.29590344      -0.53594905
Cr      -0.12504624      -0.08664124       2.69017887      -0.51535368      -0.13780267       1.06709851       0.45849395       0.28549546       1.85325086
V        1.44108415       1.43441355       4.42386436      -0.19286088      -0.34778100       0.38823186      -0.00204848       0.01834720       0.03161218
V        0.03566499      -0.00484759       6.17902565      -0.21392474       0.41403992      -0.93193273      -0.35179576      -0.07901909      -1.21525908
V        1.45682180       1.62775409       7.35013866      -0.24304183      -0.71283265       0.20663291       0.28784287      -0.66627926       0.77278793
Cr      -0.03346750       3.07178044       0.00028052       0.28060986       0.88840321      -0.30915680       0.03516635      -0.02139615       0.01881590
Cr       1.62665808       4.56562281       1.75424349      -0.33689564      -0.28774989      -1.26855502      -0.50962514      -0.51999259      -1.40711093
Cr      -0.01438441       2.89038467       2.94082808       0.46704783      -0.35997683       0.07709615      -0.00182395       0.06170242       0.06923775
V        1.51316309       4.44887781       4.45919275      -0.56463046       0.57678716      -0.54147007      -0.03190843       0.02287917       0.05002763
V       -0.00354137       2.93394852       5.88034534      -0.10815209      -0.12850223       0.50805648      -0.31020924       0.23032293       0.59997213
V        1.44644225       4.59164286       7.38466644       0.79926237      -1.04959519      -0.31346454       0.65770262      -0.84895146       0.77841824
V        0.06011001       5.89764881       0.07161933      -0.46040430      -0.19225416       0.45592811       0.00040483       0.00570792      -0.00096093
V        1.55387974       7.49922991       1.43149257      -0.15057696      -0.40714122       0.00911311      -0.52655423      -0.76590914       0.55937374
V        0.01130023       5.99257326       3.04780793      -0.05756888      -0.26943616      -0.06254843      -0.01481938       0.02473696      -0.02782541
V        1.50382841       7.49906301       4.49837303       0.34880017      -0.17252294       0.29017682      -0.00388664       0.02123311       0.04595578
V        0.05044120       5.92525673       6.09527349      -0.71395387       0.47971210      -0.55070967      -0.40637463       0.73774260      -0.84371519
V        1.56841350       7.47894859       7.51548958       0.02472108      -0.18790468      -0.10557662       0.00967099      -0.00317979      -0.00050639
V        2.92020655      -0.08753827       0.14050721       0.87167760       0.96903230      -0.46005701       0.75135303       1.47289133      -1.29641008
Cr       4.44501257       1.54205120       1.48842800       0.30816640       0.02867324      -0.04459376      -0.02424510      -0.05645594       0.00254441
V        2.98299241       0.01004045       2.99025273      -0.29918421       0.12741329      -0.37576425       0.00427489      -0.00737230      -0.00357254
V        4.40775824       1.47321963       4.50732327       0.81074454      -0.32917576      -0.39106473      -0.00767558      -0.00146932       0.01271204
Cr       2.94859266       0.01869098       5.97151423      -0.29341095       0.29500289      -0.00132027      -0.02539117      -0.03771043       0.02169267
V        4.46155882       1.51887703       7.48958731      -0.14301887      -0.17177829      -0.36783257       0.01371063      -0.03261427      -0.02760594
V        2.93594718       3.00149155       0.00748399      -0.30686078      -0.18600948       0.35541910      -0.04109879       0.03131796       0.01006228
V        4.47399569       4.55583668       1.48034501       0.41092260      -0.43353180      -0.12520494       0.04825817       0.06216707      -0.00569568
Cr       3.00061083       2.97509384       2.95692205       0.10779556      -0.01222984      -0.03255134      -0.06134449      -0.02096160       0.04453938
Cr       4.49914074       4.50207901       4.41325188      -0.16785562       0.36617525       0.15551803      -0.02101705       0.00562139      -0.01453016
V        3.01482153       3.03874087       5.94088793       0.35194754       0.15238579       0.75952518      -0.03667048       0.00389395       0.00055324
V        4.54838467       4.50437784       7.38393641       0.05073173       0.58047811      -0.12829323      -0.33981308       0.08345729       0.84043729
Cr       3.00576687       6.01375914      -0.03138851      -0.40046280       0.60773446       0.47343129       0.03196526       0.03256197      -0.04034945
V        4.40957594       7.48523569       1.42636597       0.76713648      -0.03287136      -0.00703085       0.57279772      -0.64334190       0.67852420
Cr       3.01082635       5.97645473       2.97528648      -0.41195699       0.37766194       0.89007771      -0.04308859      -0.05635392       0.00472743
V        4.46459007       7.45184422       4.43860912       0.72768205      -0.39213920       0.24823748      -0.00675075      -0.00578103      -0.02378695
V        3.04422784       5.97953224       5.92502594       0.07528902      -0.01929814       0.08002642      -0.00687833      -0.03645539      -0.04274140
V        4.46027613       7.51976109       7.43815994       0.42346786      -0.37038276       0.07841147       0.07715842      -0.04081148       0.03987031
V        6.00881481       0.00210684       0.05636216      -0.79520279      -0.24327959       0.16535969      -0.65819424       0.48829708      -0.18877701
V        7.51015568       1.55950725       1.44723952      -0.04337522      -0.00639632       0.22908084      -0.00028684      -0.02465287      -0.00492292
V        5.95253801      -0.00147430       2.99371171      -0.81522857      -0.14347037      -0.86660337      -0.00318208      -0.00967769      -0.00913273
V        7.39767456       1.42978930       4.50041533       0.25961432       0.81225376       0.64760201       0.67361015      -0.01954244      -0.50033784
V        6.02079964      -0.03695646       5.96927929      -0.36220121       0.16648491       0.48459536       0.01099560      -0.01447199      -0.01611180
V        7.47007370       1.55508077       7.57729006      -0.11054904      -0.32956988      -0.37051767       0.00450584       0.01314116      -0.01241636
Cr       5.97080994       3.14613914       0.03110456      -0.05319432      -0.80618528      -0.09474110       0.21432851      -1.11887681      -0.33068985
V        7.47986984       4.44434357       1.51774931      -0.06215440       0.42017684       0.03173760       0.00738999      -0.02231619      -0.02072279
V        5.90071774       2.97100472       2.98327971      -0.47843939      -0.55450681      -0.29348342      -0.03065403       0.05399548      -0.01128857
V        7.48199368       4.44556475       4.45960665       0.05495588       0.08784650       0.55398645      -0.01107743      -0.02921072       0.00380703
V        5.94688082       3.00618052       5.94269562       0.74971060       0.04291431       0.27439568       0.01250368      -0.00677753      -0.01473042
V        7.48849916       4.43439341       7.52251863      -0.31292105       0.10861977      -0.11077658       0.00397864       0.04192602      -0.02380814
V        6.01661491       6.02228546      -0.03365765       0.46540440      -0.16182245      -0.06311649      -0.06038398      -0.03922517       0.03592024
V        7.44218636       7.42018175       1.51104760       0.30869539       0.37841808      -0.29652386       0.01003410       0.04141353       0.08995713
Cr       5.97287369       5.96677685       3.02892232      -0.29814961       0.24181978      -0.58649335       0.01530275       0.04653854       0.03989642
Cr       7.47465944       7.44158125       4.47510290       0.69354128      -0.10818763       0.11181117       0.02528451      -0.01690559      -0.00023895
V        6.03168106       5.98614264       5.91119719      -0.52643422      -0.15454701       0.49375633      -0.03354440       0.03216652      -0.00387128
V        7.52638531       7.48815584       7.54015684      -0.06825715       0.12680072      -0.04616588       0.02633377       0.03225107       0.01837181
53
Lattice="8.96924313065 1.25181351975e-07 5.42077165329e-08 1.2518135246e-07 8.96924294695 -2.20964602923e-07 5.42077168957e-08 -2.20964603612e-07 8.96924288464" Properties=species:S:1:pos:R:3:force:R:3:forces:R:3 config_type=vacancy_aa parent_id=99999999 generation=9 step=99 variance=1.0555634498596191 loss=1.0555634498596191 energy=-476.71629442086703 pbc="T T T"
V        1.44708371       1.31404173       1.56633079       0.14829595       0.46004729      -0.28975717      -0.45271420       1.33342862      -0.52825898
Cr      -0.11458144      -0.07830150       2.67594576      -0.51535368      -0.13780267       1.06709851       0.40248519       0.24476242       1.87818563
V        1.44095266       1.43536651       4.42489529      -0.19286088      -0.34778100       0.38823186       0.00452449       0.00499740       0.02299783
V        0.02645644      -0.00149373       6.18041277      -0.21392474       0.41403992      -0.93193273      -0.28744829      -0.11717802      -1.21943927
V        1.44789803       1.62528181       7.34608698      -0.24304183      -0.71283265       0.20663291       0.35164815      -0.66613925       0.80829322
Cr      -0.03391989       3.06637430       0.00280334       0.28060986       0.88840321      -0.30915680       0.05106748      -0.00004018       0.00985073
Cr       1.64340305       4.57257080       1.75031936      -0.33689564      -0.28774989      -1.26855502      -0.59614217      -0.54550278      -1.38415086
Cr      -0.02250063       2.88941908       2.94809890       0.46704783      -0.35997683       0.07709615       0.03070782       0.06841139       0.02198339
V        1.51095772       4.45183849       4.45909500      -0.56463046       0.57678716      -0.54147007      -0.03190466       0.01400617       0.04407942
V        0.00421556       2.92991805       5.87645006      -0.10815209      -0.12850223       0.50805648      -0.37966585       0.27811038       0.62909585
V        1.44889176       4.59130001       7.38753462       0.79926237      -1.04959519      -0.31346454       0.66384482      -0.85868645       0.77341712
V        0.06125255       5.89789677       0.07243208      -0.46040430      -0.19225416       0.45592811      -0.00146667       0.00506456       0.00096886
V        1.55412376       7.49694681       1.43399394      -0.15057696      -0.40714122       0.00911311      -0.51391053      -0.76558065       0.54558384
V        0.01247317       5.99306154       3.04689336      -0.05756888      -0.26943616      -0.06254843      -0.02723583       0.02536031      -0.02077111
V        1.50440741       7.49840069       4.49655390       0.34880017      -0.17252294       0.29017682      -0.01060774       0.03605000       0.06285881
V        0.05741084       5.91948318       6.09732437      -0.71395387       0.47971210      -0.55070967      -0.45164260       0.76898551      -0.85487258
V        1.56669557       7.48020077       7.51480722       0.02472108      -0.18790468      -0.10557662       0.01189279      -0.00517905      -0.00441009
V        2.91562366      -0.08805950       0.14417088       0.87167760       0.96903230      -0.46005701       0.77517605       1.48197114      -1.33961582
Cr       4.43695450       1.53329372       1.48933053       0.30816640       0.02867324      -0.04459376       0.02080790      -0.00802728      -0.00287096
V        2.98460913       0.00676075       2.99018645      -0.29918421       0.12741329      -0.37576425       0.00707369       0.01280777       0.01781932
V        4.40656233       1.46988809       4.51197577       0.81074454      -0.32917576      -0.39106473      -0.00339082       0.01844712      -0.01617723
Cr       2.94839573       0.01856793       5.97569990      -0.29341095       0.29500289      -0.00132027      -0.02635558      -0.04263314      -0.00346356
V        4.46278906       1.51679981       7.48768950      -0.14301887      -0.17177829      -0.36783257       0.00660771      -0.02265001      -0.02747284
V        2.94188333       2.99807072       0.00332202      -0.30686078      -0.18600948       0.35541910      -0.06244057       0.04326960       0.03666701
V        4.47303009       4.55790091       1.47705114       0.41092260      -0.43353180      -0.12520494       0.06855851       0.05227450      -0.01628337
Cr       2.99303865       2.97849917       2.96109772       0.10779556      -0.01222984      -0.03255134      -0.02487954      -0.04113535       0.01656855
Cr       4.48835802       4.50228596       4.40920925      -0.16785562       0.36617525       0.15551803       0.03459912       0.00826804       0.01869236
V        3.01310039       3.04216051       5.94152069       0.35194754       0.15238579       0.75952518      -0.02756322      -0.01552491       0.00210880
V        4.55040932       4.50713682       7.39157438       0.05073173       0.58047811      -0.12829323      -0.33833677       0.06791431       0.78078955
Cr       3.00808573       6.01685572      -0.03426497      -0.40046280       0.60773446       0.47343129       0.02990771       0.01076922      -0.02449938
V        4.41127443       7.48755789       1.42299426       0.76713648      -0.03287136      -0.00703085       0.57182491      -0.66032559       0.70553201
Cr       3.01199985       5.97893858       2.97311473      -0.41195699       0.37766194       0.89007771      -0.05787532      -0.06853256       0.02192485
V        4.46667099       7.45237970       4.43833733       0.72768205      -0.39213920       0.24823748      -0.00512971      -0.00602750      -0.01509251
V        3.04304194       5.98023224       5.92564774       0.07528902      -0.01929814       0.08002642       0.01046682      -0.03638369      -0.04842442
V        4.46361542       7.51775026       7.43997192       0.42346786      -0.37038276       0.07841147       0.04618896      -0.02887652       0.02705555
V        5.99853039       0.00205157       0.05479557      -0.79520279      -0.24327959       0.16535969      -0.60697383       0.48883593      -0.17646120
V        7.50230312       1.56202674       1.44622064      -0.04337522      -0.00639632       0.22908084       0.02407271      -0.02386753      -0.00817130
V        5.95582199      -0.00338832       2.99036527      -0.81522857      -0.14347037      -0.86660337      -0.00901411       0.01626424       0.02048994
V        7.40909243       1.43085766       4.50096655       0.25961432       0.81225376       0.64760201       0.57183528      -0.01763611      -0.53252327
V        6.02457237      -0.03726819       5.96937513      -0.36220121       0.16648491       0.48459536       0.00154273      -0.01762425      -0.02116098
V        7.47007465       1.55284512       7.57781744      -0.11054904      -0.32956988      -0.37051767       0.00208266       0.02397416      -0.02074209
Cr       5.98204851       3.14900351       0.02239395      -0.05319432      -0.80618528      -0.09474110       0.14205730      -1.13747728      -0.27546954
V        7.47663021       4.44479609       1.51797950      -0.06215440       0.42017684       0.03173760       0.03219489      -0.00994487      -0.01818324
V        5.88677549       2.97606587       2.97971845      -0.47843939      -0.55450681      -0.29348342       0.03758686       0.00152888       0.02288992
V        7.47888899       4.44424534       4.45838737       0.05495588       0.08784650       0.55398645      -0.00010552      -0.01838530       0.01328636
V        5.94720125       3.00689101       5.94244432       0.74971060       0.04291431       0.27439568       0.01245833      -0.01283611      -0.02105430
V        7.49070263       4.43407679       7.52119541      -0.31292105       0.10861977      -0.11077658       0.01376637       0.04112777      -0.01924565
V        6.01810074       6.02394295      -0.03063004       0.46540440      -0.16182245      -0.06311649      -0.04950218      -0.03917413       0.01867485
V        7.44266939       7.42307615       1.51239705       0.30869539       0.37841808      -0.29652386       0.00626537       0.03223642       0.07597201
Cr       5.97133732       5.96720171       3.03040862      -0.29814961       0.24181978      -0.58649335       0.03394414       0.04855748       0.02848702
Cr       7.48115158       7.43999910       4.47701263       0.69354128      -0.10818763       0.11181117       0.00430793      -0.00974120      -0.00462999
V        6.03283167       5.98679018       5.91277409      -0.52643422      -0.15454701       0.49375633      -0.03291408       0.01921678      -0.01581625
V        7.52558327       7.48738623       7.54181385      -0.06825715       0.12680072      -0.04616588       0.02772266       0.02846984       0.01498827
