122
Lattice="15.100251138 0.0 0.0 0.0 9.06015068278 0.0 0.0 0.0 12.0802009104" Properties=species:S:1:pos:R:3:force:R:3 config_type=di-sia pbc="T T T"
Cr       1.64799719       1.35037642       4.39999679      -0.36587870       0.14676284       0.26096739
Cr       0.10023745       2.90208010       2.89108185      -0.12586468       0.03433973       0.00158128
V        1.62112722       1.42222727       1.45059316      -0.17162178      -0.48986580      -0.15185871
Ti       0.12342785       2.93619444       5.88955895       0.14078846      -0.38299034       0.37673514
V        1.56547738       4.35475248       4.43346196       0.18610748       0.50910618      -0.20399171
V        2.97401563       2.93995775       2.93876290       0.70828261      -0.45906649       0.22706643
V        3.15758011       2.87450451       5.79758384       0.05657618       0.09440748       0.61230082
V        1.60646915       4.45969218       1.40644021      -0.54401163      -0.17960151      -0.14616453
V        6.22555600       2.81459273       5.85091924      -0.36085173       0.22342113      -0.22283418
Ti       4.62339583       1.32178472       4.32263270       0.02737985       0.41010477       0.20490755
V        4.58018372       4.44127082       4.35224989       0.58339221      -0.41310784       0.35790154
V        5.81914756       3.34227360       0.32135969      -0.11384728       0.34992072       0.13414051
Cr       4.57004162       1.41296013       1.36608820       0.23210293      -0.18252576       0.81849694
V        6.08548588       2.88348939       2.94305306       0.45117081       0.29384156      -0.04562392
V        4.38515997       4.61490018       1.52600033       0.74370913      -0.14887329       0.26904106
V        1.60344909       1.36779110       7.37743703       0.26131946       0.19149700       0.17343776
V        1.68230910       1.38170591      10.36197108      -0.38663856       0.05685454       0.11397554
Cr       1.56411318       4.39244196      10.54373859       0.13727101       0.13583651      -0.88998385
V        0.13191974       2.93598746       8.92640291       0.31980143      -0.24163957      -0.15673077
V        0.09760971       2.78861653      11.99195146      -0.04399461       0.71374445      -0.32658813
V        3.16374252       2.85597024       8.73125686       0.06444441       0.29233852       0.57134766
Ti       2.99959668       3.05081522      12.07860151      -0.26497230      -0.51969992      -0.18017283
V        1.67708752       4.49731580       7.40371429      -0.33373474      -0.86551173      -0.01778362
Cr       6.21464243       2.85441788       8.81968507      -0.21533768       0.38259120      -0.20219532
V        4.36643754       1.69614864      10.79164615       0.04606738      -0.13662944      -0.72564571
Cr       5.77667869       0.40301583       9.57337105      -0.49768628      -0.44644425      -0.38881894
V        4.47488651       4.47193231      10.40421415       0.84579426      -0.11976945      -0.04409547
V        7.00340239       2.04898648      11.10729314       0.20467637      -0.14500744       0.22315949
Ti       4.68801174       4.37319267       7.36469825      -0.10299785       0.12087042       0.03390648
Cr       4.79927378       1.29404919       7.31727123      -0.30070613       0.17801101      -0.04141129
Cr       1.74257839       7.42391381       1.36864725      -0.57124921       0.12971358       0.14083290
V        1.61920792       7.34227837       4.48927174      -0.04927341       0.67327227      -0.21320187
V        3.07166392       5.96637736       2.93857473       0.20405911      -0.09021369       0.21004877
V        0.21631933       8.87416828       2.76391045      -0.18632050       0.38292717       0.85834491
Cr       0.14252285       5.89590012       5.92517861      -0.14441438       0.10345326       0.09956149
V        0.08183330       5.90048194       2.90285158       0.34691665       0.15178821       0.04977573
Ti       3.08791198       8.91659951       5.98675565       0.55589946      -0.01661753      -0.54239576
V        3.10193029       5.89081966       5.90944800       0.32578007      -0.09082330       0.10070624
Ti       3.14067348       8.89651288       3.04780458      -0.10598743       0.13893450      -0.97835700
V        0.08062932       8.97554224       5.99821490       0.47736408      -0.29318210      -0.35958845
Ti       4.65612716       7.46378600       4.41457018      -0.04421467      -0.45298984       0.14297403
Cr       6.13998791       5.87798679       5.88668943      -0.29879373      -0.13218156      -0.01322526
Ti       6.24453246       5.98700967       2.97739320      -0.26575646      -0.45900853      -0.40911198
Cr       4.60779695       7.35555343       1.44749784       0.32157921       1.01157008      -0.15940702
Cr       6.14021371       8.86438369       2.77457941       0.08684101       0.49760766       0.75684886
V        6.20312672       8.93442815       5.70756564       0.28334670      -0.47145504       0.42007941
Ti       1.59709852       7.37965738       7.44022772       0.22318832       0.07601629       0.24258350
Cr       1.63859834       7.43000095      10.43225076       0.18149125       0.19376652      -0.03438093
V        0.15477052       8.88966367      11.87604175       0.38191199       0.68472969       0.59474338
Cr       0.10471671       5.93053191      11.91781441       0.32316610       0.07623081       0.35646339
V        0.13255668       5.86394026       8.96093121       0.16851355       0.36920163       0.02375374
Cr       3.22770926       8.94766557       8.92395677      -0.72101319      -0.12608125      -0.00867691
V        0.18238281       8.97550460       8.96989728      -0.06218527      -0.20815084      -0.08097632
Ti       3.08618086       5.86975457       8.95465590       0.33808416       0.28430536      -0.15309352
V        3.05015665       8.99194083      11.98865858       0.53043149      -0.43887057       0.01169525
Cr       3.12919541       6.00606139      11.94349895      -0.37731737      -0.18181957       0.00480132
Ti       6.18885439       8.91377703      12.07051040      -0.22597368      -0.38196772       0.23595474
V        6.89402201       8.19923879       8.13647631      -0.47738432       0.42370668       0.10106515
V        6.19798981       5.86565257       8.93272526      -0.42451744      -0.54657170      -0.26559470
Ti       4.62141069       7.38943255      10.52680373       0.14362377       0.08193017      -0.40977597
V        4.57241250       7.43722650       7.38940433       0.08852217      -0.14537783       0.23978172
V        6.13802159       5.94577328      11.98113197      -0.08912998      -0.06012612      -0.02735899
Cr      10.64403061       1.27224085       1.26712276       0.60077273       0.21397182       0.47973564
V        7.69665916       1.35315185       4.35967300       0.01397884      -0.10314918      -0.28563602
Ti       9.24112790       2.84635500       2.92155519      -0.20333036       0.07187285      -0.62561429
Cr       9.17957909       2.74705086       5.82534760       0.60718731       0.47678775       0.25825239
V        7.71225804       1.46168550       1.48195087      -0.20627133      -0.38632234       0.07867734
V       10.77170065       4.26320075       4.22467394      -0.13751938       0.00984185       0.24014408
Cr      10.81469638       1.41263084       4.41326243      -0.48956981      -0.76480001      -0.55770738
V       10.67347845       4.49561290       1.22708122       0.16002877      -0.56169914       0.52305544
Ti       7.70563463       4.35017067       4.32662180      -0.15720929      -0.02716086       0.15456123
Ti       7.85574336       4.48568719       1.38800944      -0.55542950      -0.46068566       0.26292232
Cr      12.26629622       2.82296608       2.77266954      -0.28499339       0.45366599       0.15812236
Cr      13.67311276       4.50140838       1.35446900       0.57068625      -0.87971677       0.10238262
Ti      13.75355335       1.36636104       1.33989561      -0.09987881      -0.28539337       0.10084127
V       12.21417447       2.78797677       5.85864342       0.40802588       0.58628757       0.19605796
Ti      13.78864615       4.43141096       4.40622506      -0.49697074      -0.60335110      -0.25066359
V       13.72608124       1.44362164       4.35813946       0.19050144      -0.65817263       0.02238316
V       10.84809568       1.36532613       7.41859815      -0.67754629      -0.10541594      -0.41258002
Cr       9.09388869       2.90037721       8.90122642       0.65719973      -0.27156425       0.14251064
V        7.83185580       1.34878642       7.28746588      -0.50959902      -0.19928314       0.06368787
V        7.74075566       4.26563748       7.27433195      -0.36268432      -0.22514473       0.56875242
Ti       8.34695782       0.69230559       9.93041438      -0.23189620       0.61760264      -0.30347686
V        9.31244248       2.81080120      11.87020863      -0.10284714       0.26637580       0.22787990
Cr      10.81375555       1.35782776      10.36065393      -0.05040405      -0.23883826       0.30137553
V       10.82645670       4.22136223       7.41521118      -0.48397329       0.27257317      -0.03256060
Cr      10.70104464       4.35190178      10.47571691       0.18844055       0.05568121      -0.63059327
Cr       7.63422597       4.33868318      10.50855172      -0.02267244       0.88240902      -0.46483258
Cr      13.79344435       1.37703942       7.44923143      -0.35579214       0.25190929      -0.13503623
V       12.23092118       2.84290217       9.03594324       0.21762209       0.32331312      -0.81482883
V       13.68063937       4.39834094       7.40216192       0.07258204      -0.07280410       0.09094233
Ti      13.73125578       1.40629909      10.44589273       0.05992922      -0.16685900      -0.03411302
V       12.30910378       2.94981759      12.02290463      -0.61321517      -0.32152958      -0.65962762
V       13.81386027       4.41666822      10.38803196      -0.59604501      -0.16360521       0.25432363
Cr       9.50139789       5.68719677       5.70684121      -0.29799372      -0.49263579      -0.19565171
V        9.23121160       5.94850167       2.85754142       0.09238354      -0.12181509      -0.34320362
Cr       9.19037036       8.90636333       2.90163791       0.26222051      -0.07077882      -0.22257083
V        7.79513537       7.32365943       4.41632011      -0.56914194       0.59930740      -0.80182474
Cr       9.31321396       8.85941613       5.74686393       0.07795040       0.20374581       0.47107962
Ti      10.86550096       7.50815534       4.34153389      -0.43826408      -0.76782883      -0.76169399
V       10.77621660       7.39739193       1.26778133      -0.27787228      -0.04961746       0.30894648
V        7.64023785       7.34424470       1.37388765       0.33573548       0.17522303       0.29811776
Ti      12.29913103       5.80877025       5.66910469       0.17061196       0.22140618       0.97428221
Ti      12.22367681       5.84088063       2.76388223       0.09103692       0.76714046       0.37649079
Cr      13.73266702       7.51772353       4.34736701       0.51607196      -0.72008589      -0.17119762
Cr      12.34062144       8.83397621       2.81152564      -0.50146688       0.95907444       0.00685448
Ti      12.29922512       8.90897882       5.83935650       0.29696050       0.29683461       0.25634358
Cr      13.84754183       7.36166879       1.41425847      -0.63503855       0.12187802      -0.79159094
V        8.13712549       6.84876830       7.04456352       0.12257305      -0.22751513      -0.59244185
V        9.50017483       8.50520469       8.50437677       0.46666732       0.09671333      -0.16623779
Ti       9.15538105       5.72835789       8.93353437       0.78035814       0.02572095       0.19886972
V       10.75006165       7.46925220      10.39311242      -0.20677149      -0.61166864       0.24192206
Cr       7.62907966       7.26976895      10.53762323       0.20765771       0.41897251      -0.62458844
V       10.97115568       7.15617366       7.20822013      -0.20456351       0.54808838       0.16660027
Cr       9.19088781       5.92229027      11.84904005       0.24553545      -0.30670461       0.44950805
V        9.15908791       8.77755489      11.98809408       0.46415044       0.63930109       0.45156516
V       13.81451885       7.35612733       7.48640345      -0.25232211       0.52875350      -0.41537832
V       12.25462998       8.97441325       8.85952903       0.51000404      -0.47243637       0.48093477
Cr      12.29132218       5.85010072      11.89156537      -0.28380703       0.61801368      -0.05872632
Cr      12.17531838       5.91862105       8.89049160       0.59312678      -0.46767871       0.58871199
Cr      13.85986665       7.51286887      10.52614516      -0.94005271      -0.64754841      -0.91856949
V       12.23223833       8.89318236      11.89372927       0.14721479       0.16271158       0.20417447
122
Lattice="15.100251138 0.0 0.0 0.0 9.06015068278 0.0 0.0 0.0 12.0802009104" Properties=species:S:1:pos:R:3:force:R:3:forces:R:3 config_type=di-sia_aa parent_id=99999999 generation=9 step=0 variance=0.11568644642829895 loss=0.11568644642829895 energy=-1066.1240759467055 pbc="T T T"
Cr       1.64799714       1.35037637       4.39999676      -0.36587870       0.14676284       0.26096739      -0.49417067      -0.02363863       0.41624603
Cr       0.10023745       2.90208006       2.89108181      -0.12586468       0.03433973       0.00158128      -0.11435959       0.16728723      -0.01197751
V        1.62112725       1.42222726       1.45059311      -0.17162178      -0.48986580      -0.15185871      -0.20502397      -0.62038422      -0.38745308
Ti       0.12342785       2.93619442       5.88955879       0.14078846      -0.38299034       0.37673514       0.06102082       0.00760625       0.33896396
V        1.56547737       4.35475254       4.43346214       0.18610748       0.50910618      -0.20399171       0.56050074       0.42503819      -0.23656039
V        2.97401571       2.93995786       2.93876290       0.70828261      -0.45906649       0.22706643       0.67860126       0.15203592       0.07163919
V        3.15758014       2.87450457       5.79758406       0.05657618       0.09440748       0.61230082      -0.03056670       0.34758306       0.81956881
V        1.60646915       4.45969200       1.40644026      -0.54401163      -0.17960151      -0.14616453      -0.65743655      -0.21440098       0.18201189
V        6.22555590       2.81459284       5.85091925      -0.36085173       0.22342113      -0.22283418       0.01191062       0.44504866      -0.31245667
Ti       4.62339592       1.32178473       4.32263279       0.02737985       0.41010477       0.20490755      -0.03273439       0.58388984       0.26869091
V        4.58018351       4.44127083       4.35225010       0.58339221      -0.41310784       0.35790154       0.19459537      -0.70516050       0.16947012
V        5.81914759       3.34227371       0.32135969      -0.11384728       0.34992072       0.13414051       0.16190225       0.46054983      -0.01878841
Cr       4.57004166       1.41296017       1.36608815       0.23210293      -0.18252576       0.81849694      -0.04644612       0.18395025       0.75649393
V        6.08548594       2.88348937       2.94305301       0.45117081       0.29384156      -0.04562392       0.62377894       0.40154466       0.03862464
V        4.38515997       4.61490011       1.52600038       0.74370913      -0.14887329       0.26904106       1.23015904      -0.62434542       0.32957372
V        1.60344911       1.36779106       7.37743711       0.26131946       0.19149700       0.17343776       0.00520339       0.29732436       0.14080831
V        1.68230915       1.38170588      10.36197090      -0.38663856       0.05685454       0.11397554      -0.86263144       0.06616337       0.30920222
Cr       1.56411314       4.39244175      10.54373837       0.13727101       0.13583651      -0.88998385      -0.11508267      -0.34616563      -1.22733259
V        0.13191974       2.93598747       8.92640305       0.31980143      -0.24163957      -0.15673077       0.31605673      -0.06379840      -0.22268079
V        0.09760971       2.78861642      11.99195099      -0.04399461       0.71374445      -0.32658813       0.17950249       0.54658556      -0.09836020
V        3.16374254       2.85597014       8.73125648       0.06444441       0.29233852       0.57134766      -0.31250259       0.46429417       0.67521727
Ti       2.99959660       3.05081511      12.07860184      -0.26497230      -0.51969992      -0.18017283      -0.17275161      -0.63647151      -0.09328562
V        1.67708755       4.49731588       7.40371418      -0.33373474      -0.86551173      -0.01778362      -0.17637429      -1.02238083       0.18925139
Cr       6.21464252       2.85441780       8.81968498      -0.21533768       0.38259120      -0.20219532      -0.23549157       0.87565792      -0.22999196
V        4.36643744       1.69614863      10.79164600       0.04606738      -0.13662944      -0.72564571      -0.14606328      -0.10369130      -0.74510568
Cr       5.77667856       0.40301582       9.57337093      -0.49768628      -0.44644425      -0.38881894      -0.37149835      -0.80659568       0.18999171
V        4.47488642       4.47193241      10.40421391       0.84579426      -0.11976945      -0.04409547       0.89783704       0.07674290      -0.15674393
V        7.00340223       2.04898643      11.10729313       0.20467637      -0.14500744       0.22315949       0.49985760       0.04234215       1.22191286
Ti       4.68801165       4.37319279       7.36469841      -0.10299785       0.12087042       0.03390648      -0.64646912      -0.03101475      -0.01394890
Cr       4.79927397       1.29404914       7.31727123      -0.30070613       0.17801101      -0.04141129      -0.31949943       0.29586792      -0.87124848
Cr       1.74257839       7.42391396       1.36864722      -0.57124921       0.12971358       0.14083290      -1.06971407       0.34428963       0.33316147
V        1.61920798       7.34227848       4.48927164      -0.04927341       0.67327227      -0.21320187       0.02431326       0.77172154      -0.59858191
V        3.07166386       5.96637726       2.93857479       0.20405911      -0.09021369       0.21004877       0.11830588      -0.67130625       0.57892931
V        0.21631932       8.87416840       2.76391053      -0.18632050       0.38292717       0.85834491      -0.32167500       0.57430351       0.77326620
Cr       0.14252286       5.89590025       5.92517853      -0.14441438       0.10345326       0.09956149       0.01167752      -0.10892189       0.23425937
V        0.08183330       5.90048218       2.90285158       0.34691665       0.15178821       0.04977573       0.68797112      -0.20194465       0.18600935
Ti       3.08791208       8.91659927       5.98675585       0.55589946      -0.01661753      -0.54239576       0.38396248      -0.37082919      -0.38417220
V        3.10193038       5.89081955       5.90944815       0.32578007      -0.09082330       0.10070624       0.23157100      -0.00891238       0.12140074
Ti       3.14067340       8.89651299       3.04780459      -0.10598743       0.13893450      -0.97835700      -0.13259362      -0.10137101      -0.51240075
V        0.08062932       8.97554207       5.99821472       0.47736408      -0.29318210      -0.35958845       0.51465255      -0.52624625      -0.44923338
Ti       4.65612698       7.46378613       4.41457033      -0.04421467      -0.45298984       0.14297403      -0.43194386      -0.24088287       0.16711757
Cr       6.13998795       5.87798691       5.88668966      -0.29879373      -0.13218156      -0.01322526      -0.13874818      -0.01332591       0.13385528
Ti       6.24453259       5.98700953       2.97739315      -0.26575646      -0.45900853      -0.40911198       0.07720275      -0.54022187      -0.08763008
Cr       4.60779715       7.35555363       1.44749784       0.32157921       1.01157008      -0.15940702       0.24084210       0.71051836      -0.29106718
Cr       6.14021349       8.86438370       2.77457952       0.08684101       0.49760766       0.75684886       0.89084589       0.30722052       0.85055172
V        6.20312691       8.93442822       5.70756578       0.28334670      -0.47145504       0.42007941       0.57645917      -0.66023016       0.07316611
Ti       1.59709847       7.37965727       7.44022751       0.22318832       0.07601629       0.24258350       0.15036014       0.27012300       0.26476920
Cr       1.63859832       7.43000078      10.43225098       0.18149125       0.19376652      -0.03438093      -0.14543533       0.51146764      -0.09853544
V        0.15477052       8.88966370      11.87604141       0.38191199       0.68472969       0.59474338       0.37487161       1.01470447       0.62877840
Cr       0.10471671       5.93053198      11.91781425       0.32316610       0.07623081       0.35646339       0.05941064      -0.21978132       0.41358739
V        0.13255668       5.86394024       8.96093082       0.16851355       0.36920163       0.02375374      -0.12196982       0.25413603      -0.39857063
Cr       3.22770929       8.94766521       8.92395687      -0.72101319      -0.12608125      -0.00867691      -1.17742109      -0.04871550       0.14531654
V        0.18238281       8.97550488       8.96989727      -0.06218527      -0.20815084      -0.08097632      -0.06972010      -0.21117365      -0.20475015
Ti       3.08618093       5.86975479       8.95465565       0.33808416       0.28430536      -0.15309352       0.69656026       0.05005226      -0.52790225
V        3.05015659       8.99194050      11.98865891       0.53043149      -0.43887057       0.01169525       0.42365575       0.02903986      -0.43216598
Cr       3.12919545       6.00606155      11.94349861      -0.37731737      -0.18181957       0.00480132      -0.21651904      -0.64721382      -0.09761170
Ti       6.18885422       8.91377735      12.07051086      -0.22597368      -0.38196772       0.23595474       0.31511006      -0.35947055       0.09611906
V        6.89402199       8.19923878       8.13647652      -0.47738432       0.42370668       0.10106515      -0.33062148      -0.37550193      -0.48512062
V        6.19798994       5.86565256       8.93272495      -0.42451744      -0.54657170      -0.26559470      -0.65815246      -0.49109548      -0.19564217
Ti       4.62141085       7.38943243      10.52680397       0.14362377       0.08193017      -0.40977597       0.64956999       0.20295648      -0.37508684
V        4.57241249       7.43722630       7.38940430       0.08852217      -0.14537783       0.23978172      -0.21692392      -0.23841941       0.29603902
V        6.13802147       5.94577312      11.98113155      -0.08912998      -0.06012612      -0.02735899      -0.31857026      -0.21735597       0.14643428
Cr      10.64403057       1.27224088       1.26712275       0.60077273       0.21397182       0.47973564       0.50533158       0.38060427      -0.08757427
V        7.69665909       1.35315180       4.35967302       0.01397884      -0.10314918      -0.28563602      -0.54456043       0.17679194      -0.37853894
Ti       9.24112797       2.84635496       2.92155528      -0.20333036       0.07187285      -0.62561429      -0.43353271       0.47600985      -0.62486053
Cr       9.17957878       2.74705076       5.82534742       0.60718731       0.47678775       0.25825239       0.73680449       0.63310921       0.41511887
V        7.71225786       1.46168554       1.48195088      -0.20627133      -0.38632234       0.07867734      -0.22563367       0.15308093      -0.17626461
V       10.77170086       4.26320076       4.22467375      -0.13751938       0.00984185       0.24014408      -0.06931638       0.21803400       0.14093986
Cr      10.81469631       1.41263080       4.41326237      -0.48956981      -0.76480001      -0.55770738       0.02696931      -0.36078510      -0.47439045
V       10.67347813       4.49561310       1.22708118       0.16002877      -0.56169914       0.52305544       0.33548403      -0.92991543       0.69051898
Ti       7.70563459       4.35017061       4.32662201      -0.15720929      -0.02716086       0.15456123      -0.30205056      -0.22945361      -0.44359446
Ti       7.85574341       4.48568726       1.38800943      -0.55542950      -0.46068566       0.26292232      -0.94916761      -0.82920426       0.36496589
Cr      12.26629639       2.82296610       2.77266955      -0.28499339       0.45366599       0.15812236      -0.43371281       0.51838928       0.47361833
Cr      13.67311287       4.50140858       1.35446894       0.57068625      -0.87971677       0.10238262       0.64137161      -0.82232660      -0.14960176
Ti      13.75355339       1.36636102       1.33989561      -0.09987881      -0.28539337       0.10084127       0.17966938      -0.36105120      -0.33269525
V       12.21417427       2.78797674       5.85864353       0.40802588       0.58628757       0.19605796       0.34580573       0.68588936       0.06336035
Ti      13.78864574       4.43141079       4.40622520      -0.49697074      -0.60335110      -0.25066359      -0.55341589      -0.53382587      -0.32235634
V       13.72608089       1.44362164       4.35813951       0.19050144      -0.65817263       0.02238316       0.33662713      -0.64082861       0.35787320
V       10.84809589       1.36532617       7.41859818      -0.67754629      -0.10541594      -0.41258002      -0.20305197      -0.23484099      -0.34427366
Cr       9.09388828       2.90037727       8.90122604       0.65719973      -0.27156425       0.14251064       0.94804686      -0.11605608      -0.35921979
V        7.83185577       1.34878647       7.28746605      -0.50959902      -0.19928314       0.06368787      -0.81281364      -0.15086120      -0.04929233
V        7.74075556       4.26563740       7.27433205      -0.36268432      -0.22514473       0.56875242      -0.45846272      -0.08562459       0.55384600
Ti       8.34695816       0.69230556       9.93041420      -0.23189620       0.61760264      -0.30347686      -0.31406128       0.07124580      -0.11113789
V        9.31244278       2.81080127      11.87020874      -0.10284714       0.26637580       0.22787990      -0.16231784       0.25415361       0.54769593
Cr      10.81375599       1.35782778      10.36065388      -0.05040405      -0.23883826       0.30137553       0.50281048      -0.14861241       0.53753841
V       10.82645702       4.22136211       7.41521120      -0.48397329       0.27257317      -0.03256060      -0.06006188       0.02655359       0.15717660
Cr      10.70104504       4.35190201      10.47571659       0.18844055       0.05568121      -0.63059327       0.27814859      -0.24716127      -0.35050553
Cr       7.63422585       4.33868313      10.50855160      -0.02267244       0.88240902      -0.46483258      -0.13649742       1.04426003      -0.09231555
Cr      13.79344463       1.37703943       7.44923162      -0.35579214       0.25190929      -0.13503623      -0.08994892       0.19614395       0.19343935
V       12.23092079       2.84290218       9.03594303       0.21762209       0.32331312      -0.81482883       0.25285226       0.53992438      -1.02564955
V       13.68063927       4.39834070       7.40216208       0.07258204      -0.07280410       0.09094233       0.35675263      -0.48264825       0.23383641
Ti      13.73125553       1.40629911      10.44589233       0.05992922      -0.16685900      -0.03411302       0.27160931      -0.16782908      -0.25962302
V       12.30910397       2.94981766      12.02290440      -0.61321517      -0.32152958      -0.65962762      -0.58745658      -0.18063697      -0.63813639
V       13.81385994       4.41666842      10.38803196      -0.59604501      -0.16360521       0.25432363      -0.52405399      -0.48469204       0.18161365
Cr       9.50139809       5.68719673       5.70684099      -0.29799372      -0.49263579      -0.19565171      -0.33773479      -0.36564326      -0.14021371
V        9.23121166       5.94850159       2.85754132       0.09238354      -0.12181509      -0.34320362       0.14995977      -0.18907432      -0.21400297
Cr       9.19037056       8.90636349       2.90163779       0.26222051      -0.07077882      -0.22257083      -0.16941878      -0.21445897      -0.37194309
V        7.79513550       7.32365942       4.41632032      -0.56914194       0.59930740      -0.80182474      -0.51965165       0.21297100      -0.96895856
Cr       9.31321430       8.85941601       5.74686384       0.07795040       0.20374581       0.47107962      -0.23591225      -0.20306215       0.77848983
Ti      10.86550140       7.50815535       4.34153366      -0.43826408      -0.76782883      -0.76169399      -0.06287199      -1.12246263      -0.60361111
V       10.77621651       7.39739180       1.26778138      -0.27787228      -0.04961746       0.30894648      -0.26555330      -0.00610879       0.16933529
V        7.64023781       7.34424448       1.37388766       0.33573548       0.17522303       0.29811776       0.28873283       0.16584636      -0.03616877
Ti      12.29913139       5.80877018       5.66910458       0.17061196       0.22140618       0.97428221       0.09557137       0.16253391       1.24278891
Ti      12.22367668       5.84088039       2.76388216       0.09103692       0.76714046       0.37649079      -0.53221732       0.48940653       0.52418476
Cr      13.73266697       7.51772356       4.34736681       0.51607196      -0.72008589      -0.17119762       0.75972962      -0.62879229      -0.11672675
Cr      12.34062099       8.83397579       2.81152558      -0.50146688       0.95907444       0.00685448      -0.49331212       0.82115686      -0.22949862
Ti      12.29922485       8.90897846       5.83935642       0.29696050       0.29683461       0.25634358       0.09433044       0.12664518       0.56787294
Cr      13.84754181       7.36166859       1.41425848      -0.63503855       0.12187802      -0.79159094      -0.31524390       0.56694424      -0.54031324
V        8.13712502       6.84876823       7.04456329       0.12257305      -0.22751513      -0.59244185      -0.22103076       0.35572311      -0.24920860
V        9.50017452       8.50520515       8.50437641       0.46666732       0.09671333      -0.16623779       0.70573777       0.19881205       0.02981999
Ti       9.15538120       5.72835779       8.93353462       0.78035814       0.02572095       0.19886972       0.69836867       0.15527007      -0.54270685
V       10.75006199       7.46925211      10.39311218      -0.20677149      -0.61166864       0.24192206       0.01130149      -0.22622430       0.00312578
Cr       7.62907982       7.26976871      10.53762341       0.20765771       0.41897251      -0.62458844      -0.16436706       0.24388298      -0.73700619
V       10.97115612       7.15617371       7.20822001      -0.20456351       0.54808838       0.16660027      -0.23279023       0.94734114       0.36112398
Cr       9.19088745       5.92229033      11.84904003       0.24553545      -0.30670461       0.44950805       0.79212427       0.03092775       0.66060799
V        9.15908813       8.77755451      11.98809433       0.46415044       0.63930109       0.45156516       0.26332444       0.56965363       0.81239051
V       13.81451893       7.35612726       7.48640347      -0.25232211       0.52875350      -0.41537832      -0.31361330       0.90733540      -0.15110974
V       12.25463009       8.97441292       8.85952950       0.51000404      -0.47243637       0.48093477       0.44463509      -0.76283044       0.24725747
Cr      12.29132175       5.85010052      11.89156532      -0.28380703       0.61801368      -0.05872632      -0.51174974       0.63986605      -0.29973185
Cr      12.17531872       5.91862106       8.89049149       0.59312678      -0.46767871       0.58871199       0.62026727      -0.34723935       0.31833327
Cr      13.85986710       7.51286888      10.52614498      -0.94005271      -0.64754841      -0.91856949      -0.96119869      -0.31239879      -1.27901769
V       12.23223877       8.89318275      11.89372921       0.14721479       0.16271158       0.20417447      -0.00474343      -0.01293419       0.27735311
122
Lattice="15.100251138 0.0 0.0 0.0 9.06015068278 0.0 0.0 0.0 12.0802009104" Properties=species:S:1:pos:R:3:force:R:3:forces:R:3 config_type=di-sia_aa parent_id=99999999 generation=9 step=11 variance=0.5609808564186096 loss=0.5609808564186096 energy=-1066.9705535333462 pbc="T T T"
Cr       1.63664484       1.33749461       4.40588999      -0.36587870       0.14676284       0.26096739      -0.14472355       0.12124860       0.28869417
Cr       0.08013155       2.89895463       2.88160253      -0.12586468       0.03433973       0.00158128       0.08591360       0.01185991       0.07814749
V        1.63806045       1.40361691       1.44343138      -0.17162178      -0.48986580      -0.15185871      -0.25163147      -0.52642703      -0.35436273
Ti       0.13224620       2.93609953       5.91789150       0.14078846      -0.38299034       0.37673514      -0.05181573      -0.00628184       0.10855488
V        1.54600370       4.34147024       4.41832876       0.18610748       0.50910618      -0.20399171       0.78753394       0.38404807      -0.05573718
V        3.05133295       2.98662329       2.91338849       0.70828261      -0.45906649       0.22706643      -0.11865786      -0.21801269       0.35760456
V        3.19543099       2.88284755       5.83660078       0.05657618       0.09440748       0.61230082      -0.41907692       0.30617410       0.51621532
V        1.58047771       4.45562506       1.41487825      -0.54401163      -0.17960151      -0.14616453      -0.17925432      -0.33776474       0.17676389
V        6.22800732       2.88900852       5.81203890      -0.36085173       0.22342113      -0.22283418      -0.04778875      -0.07430554       0.06607849
Ti       4.59677172       1.37575185       4.30652905       0.02737985       0.41010477       0.20490755       0.18520719       0.07035069       0.55657303
V        4.57083368       4.44368362       4.33781433       0.58339221      -0.41310784       0.35790154       0.34074008      -0.73635864       0.44016027
V        5.85069561       3.39638448       0.29758433      -0.11384728       0.34992072       0.13414051       0.01184663      -0.08054151      -0.05140167
Cr       4.55813694       1.45756197       1.42103148       0.23210293      -0.18252576       0.81849694       0.13301069      -0.09553840       0.00927628
V        6.06071663       2.82756925       3.02697897       0.45117081       0.29384156      -0.04562392       0.73945367       0.78401124      -0.57544446
V        4.42755699       4.59597778       1.52956259       0.74370913      -0.14887329       0.26904106       0.84190482      -0.48013228       0.19444142
V        1.60686052       1.38658357       7.38767290       0.26131946       0.19149700       0.17343776      -0.03539654       0.01885030       0.04935857
V        1.62396193       1.41996837      10.43987083      -0.38663856       0.05685454       0.11397554      -0.52405715      -0.37598372      -0.10708009
Cr       1.61528373       4.35740805      10.59501839       0.13727101       0.13583651      -0.88998385      -0.36580989       0.06992786      -1.69194293
V        0.17761768       2.94286990       8.92252159       0.31980143      -0.24163957      -0.15673077       0.07545418      -0.01096239       0.00467057
V        0.11153451       2.87614202      11.99534798      -0.04399461       0.71374445      -0.32658813       0.01351027      -0.06529319       0.04648977
V        3.12702513       2.84158492       8.76964378       0.06444441       0.29233852       0.57134766      -0.20657401       0.50709218       0.46220419
Ti       3.01567459       2.95097017      12.07705688      -0.26497230      -0.51969992      -0.18017283       0.03191713      -0.00963486      -0.09906381
V        1.66026115       4.48702145       7.38679886      -0.33373474      -0.86551173      -0.01778362       0.05777927      -0.93085432       0.32522848
Cr       6.14225054       2.92405534       8.81261539      -0.21533768       0.38259120      -0.20219532       0.06230009       0.02365730      -0.07884574
V        4.35423613       1.65544975      10.68962479       0.04606738      -0.13662944      -0.72564571       0.12999332       0.14726853      -0.11538194
Cr       5.77611828       0.34386659       9.58115578      -0.49768628      -0.44644425      -0.38881894       0.04464547      -0.02779648       0.01191930
V        4.53898621       4.47560787      10.37121391       0.84579426      -0.11976945      -0.04409547       0.42694947      -0.00960579       0.15082614
V        7.03644514       2.06061912      11.10816574       0.20467637      -0.14500744       0.22315949       0.02612163      -0.03228987       1.12180614
Ti       4.67751646       4.35416985       7.35777426      -0.10299785       0.12087042       0.03390648      -0.59679300       0.07026331      -0.09085326
Cr       4.77497005       1.24981427       7.31541061      -0.30070613       0.17801101      -0.04141129      -0.14344448       0.63583839      -0.63994515
Cr       1.66289258       7.43332624       1.39011145      -0.57124921       0.12971358       0.14083290      -0.06110027      -0.01921432      -0.08794343
V        1.64554691       7.38965797       4.45627975      -0.04927341       0.67327227      -0.21320187      -0.04966804       0.37008566      -0.34898585
V        3.07120037       5.90137720       2.98048496       0.20405911      -0.09021369       0.21004877       0.04163934      -0.03466192       0.04339976
V        0.24892828       8.84510899       2.78440523      -0.18632050       0.38292717       0.85834491      -0.50656343       0.79464185       0.73643923
Cr       0.14699443       5.91331673       5.93608570      -0.14441438       0.10345326       0.09956149       0.02233659      -0.20266150      -0.00205173
V        0.15725985       5.89950895       2.89061713       0.34691665       0.15178821       0.04977573       0.02633594      -0.13046455       0.21141288
Ti       3.10889435       8.89419174       6.01186466       0.55589946      -0.01661753      -0.54239576       0.18003295      -0.20613736      -0.58776855
V        3.13341427       5.89021015       5.92416096       0.32578007      -0.09082330       0.10070624      -0.05049673      -0.02020472       0.02932751
Ti       3.15678835       8.86310005       2.98594332      -0.10598743       0.13893450      -0.97835700      -0.26018429       0.18555151      -0.11185473
V        0.04136137       8.93062973       5.95316696       0.47736408      -0.29318210      -0.35958845       0.74705189      -0.20706837      -0.10997643
Ti       4.61396646       7.42869520       4.43658447      -0.04421467      -0.45298984       0.14297403       0.01636932       0.06343852       0.03120730
Cr       6.13659239       5.87242079       5.89328575      -0.29879373      -0.13218156      -0.01322526      -0.12545757       0.00220857      -0.00204687
Ti       6.24330854       5.93497562       2.94596410      -0.26575646      -0.45900853      -0.40911198       0.00616830      -0.03781850       0.03864280
Cr       4.58816528       7.39386988       1.42666996       0.32157921       1.01157008      -0.15940702       0.05583682       0.02465947      -0.16879152
Cr       6.11986732       8.88910675       2.74157190       0.08684101       0.49760766       0.75684886       0.92428970       0.10408387       1.19674420
V        6.28267527       8.92276001       5.80982161       0.28334670      -0.47145504       0.42007941       0.09032717      -0.53131902      -0.85115260
Ti       1.62621069       7.41234159       7.47120523       0.22318832       0.07601629       0.24258350      -0.01137294       0.00484112      -0.02438629
Cr       1.62170649       7.48251724      10.40855598       0.18149125       0.19376652      -0.03438093       0.04601061      -0.01188217      -0.01542321
V        0.15899460       8.90648937      11.90999794       0.38191199       0.68472969       0.59474338       0.29599392       1.04236794       0.39259979
Cr       0.10759262       5.89945841      11.95462227       0.32316610       0.07623081       0.35646339      -0.00172449      -0.06160776       0.07224124
V        0.11899561       5.88257647       8.92156315       0.16851355       0.36920163       0.02375374       0.04256820      -0.00379067      -0.01145734
Cr       3.21948647       8.90766811       8.91207123      -0.72101319      -0.12608125      -0.00867691      -1.30190229       0.36273509       0.37342477
V        0.16831383       8.95650101       8.93448925      -0.06218527      -0.20815084      -0.08097632      -0.05026146       0.02723709       0.08886176
Ti       3.18053102       5.85278511       8.88846111       0.33808416       0.28430536      -0.15309352      -0.00750082       0.07907772       0.06600010
V        3.10138798       8.97620773      11.92971325       0.53043149      -0.43887057       0.01169525      -0.05374024       0.09327793       0.00108941
Cr       3.11565113       5.94054651      11.92101669      -0.37731737      -0.18181957       0.00480132       0.00162813      -0.03291001       0.03197087
Ti       6.19104052       8.84397411      12.09265900      -0.22597368      -0.38196772       0.23595474       0.39001900       0.21981776      -0.16038792
V        6.84152079       8.16463375       8.11748886      -0.47738432       0.42370668       0.10106515      -0.05784623       0.02910719      -0.11256103
V        6.21950054       5.83792496       8.94622898      -0.42451744      -0.54657170      -0.26559470      -0.71362579      -0.46131325      -0.42645177
Ti       4.67970514       7.44023991      10.48677444       0.14362377       0.08193017      -0.40977597       0.09619912      -0.63012445       0.01429338
V        4.55931330       7.40773916       7.43636131       0.08852217      -0.14537783       0.23978172      -0.11080194      -0.22758278      -0.04078905
V        6.11169672       5.95203590      11.99756336      -0.08912998      -0.06012612      -0.02735899      -0.00795004       0.00590252      -0.08743010
Cr      10.70141888       1.25761569       1.23324180       0.60077273       0.21397182       0.47973564       0.08216210       0.58176726       0.24312901
V        7.63326311       1.37253988       4.32603264       0.01397884      -0.10314918      -0.28563602       0.01521667      -0.04572601       0.08782631
Ti       9.22088909       2.83656669       2.93144345      -0.20333036       0.07187285      -0.62561429      -0.30467647       0.46323037      -0.71277303
Cr       9.19674778       2.75805187       5.83636379       0.60718731       0.47678775       0.25825239       0.55580938       0.26316270       0.16890840
V        7.69344664       1.47649634       1.45071638      -0.20627133      -0.38632234       0.07867734      -0.00796036      -0.03042396       0.04880875
V       10.77134991       4.29106522       4.25120687      -0.13751938       0.00984185       0.24014408      -0.05704501      -0.06521314      -0.03300291
Cr      10.80350685       1.36337221       4.33656359      -0.48956981      -0.76480001      -0.55770738       0.07081008      -0.00327522       0.09009971
V       10.65216160       4.53403568       1.24999177       0.16002877      -0.56169914       0.52305544       0.57523894      -1.05866909       0.60359657
Ti       7.71612644       4.34071779       4.31033945      -0.15720929      -0.02716086       0.15456123      -0.35827050      -0.17486803      -0.29879987
Ti       7.86177921       4.50200891       1.39765131      -0.55542950      -0.46068566       0.26292232      -0.95837367      -0.91185188       0.31914327
Cr      12.27721596       2.85286689       2.76515722      -0.28499339       0.45366599       0.15812236      -0.47979125       0.27326778       0.34528542
Cr      13.71822834       4.47551823       1.36403418       0.57068625      -0.87971677       0.10238262       0.11086562      -0.28497148      -0.15459083
Ti      13.78126717       1.32176936       1.30744088      -0.09987881      -0.28539337       0.10084127       0.01540205       0.04543888      -0.08804387
V       12.21498203       2.76206946       5.84334040       0.40802588       0.58628757       0.19605796       0.19288737       0.71282220       0.06034283
Ti      13.76327229       4.38383245       4.37126207      -0.49697074      -0.60335110      -0.25066359      -0.21492109      -0.25053197      -0.16771516
V       13.73283005       1.40481508       4.37507057       0.19050144      -0.65817263       0.02238316       0.30458707      -0.38827655       0.27782655
V       10.81948853       1.32431448       7.36371469      -0.67754629      -0.10541594      -0.41258002       0.00405363      -0.02302378      -0.03042515
Cr       9.10822964       2.91522264       8.92281246       0.65719973      -0.27156425       0.14251064       0.70882761      -0.41839346      -0.47991341
V        7.86325264       1.31671321       7.29205799      -0.50959902      -0.19928314       0.06368787      -1.01455033       0.15486887       0.07592393
V        7.71708536       4.22225666       7.28021812      -0.36268432      -0.22514473       0.56875242      -0.23373032       0.23488760       0.44511580
Ti       8.32609940       0.69213820       9.93542004      -0.23189620       0.61760264      -0.30347686       0.15358186      -0.00667576      -0.18308102
V        9.32098866       2.88108873      11.93107033      -0.10284714       0.26637580       0.22787990      -0.28603804      -0.04760694       0.18790935
Cr      10.86093998       1.39442730      10.34681225      -0.05040405      -0.23883826       0.30137553      -0.09836854      -0.44866502       0.65620548
V       10.82770634       4.22043324       7.42661905      -0.48397329       0.27257317      -0.03256060      -0.04333453      -0.00054663      -0.01447466
Cr      10.72172642       4.32491255      10.44462395       0.18844055       0.05568121      -0.63059327       0.03449566       0.00407360      -0.03609629
Cr       7.57846975       4.34058666      10.48547840      -0.02267244       0.88240902      -0.46483258       0.35476470       1.21111524       0.14255856
Cr      13.79500103       1.40554976       7.47475529      -0.35579214       0.25190929      -0.13503623      -0.06064367      -0.02486700      -0.00873269
V       12.23070240       2.87132740       9.05401897       0.21762209       0.32331312      -0.81482883       0.30266601       0.25269181      -1.32667160
V       13.66598225       4.38121939       7.40065670       0.07258204      -0.07280410       0.09094233       0.40635508      -0.35768336       0.21582292
Ti      13.71785927       1.43483949      10.47800827       0.05992922      -0.16685900      -0.03411302       0.33790344      -0.32783258      -0.39823908
V       12.23310661       2.98425937      11.98797512      -0.61321517      -0.32152958      -0.65962762      -0.04087900      -0.24838215      -0.28108156
V       13.76448154       4.36175966      10.41704082      -0.59604501      -0.16360521       0.25432363      -0.06277843       0.05443636       0.02486699
Cr       9.46509552       5.66976690       5.70925474      -0.29799372      -0.49263579      -0.19565171       0.00201578      -0.09448483      -0.00290273
V        9.24683762       5.93115568       2.84695697       0.09238354      -0.12181509      -0.34320362      -0.00200536       0.00248624      -0.02460150
Cr       9.22981071       8.88093662       2.95165706       0.26222051      -0.07077882      -0.22257083      -0.58159065       0.12144073      -0.80260026
V        7.80131578       7.33572721       4.43298054      -0.56914194       0.59930740      -0.80182474      -0.67263234       0.03819928      -1.16306877
Cr       9.31193829       8.77730179       5.81690264       0.07795040       0.20374581       0.47107962      -0.15250936       0.47664055      -0.10305405
Ti      10.94065952       7.53932142       4.28622723      -0.43826408      -0.76782883      -0.76169399      -0.66200602      -1.62367940       0.00725426
V       10.74848175       7.40090942       1.30781019      -0.27787228      -0.04961746       0.30894648       0.02418220       0.02423972      -0.02618408
V        7.68142843       7.34953117       1.38219810       0.33573548       0.17522303       0.29811776       0.08468582       0.09865396      -0.00853673
Ti      12.32894611       5.80446625       5.60768127       0.17061196       0.22140618       0.97428221      -0.25791597       0.19494073       1.61547232
Ti      12.21040058       5.90490866       2.81779146       0.09103692       0.76714046       0.37649079      -0.18284047       0.00017021      -0.05803458
Cr      13.73820686       7.52288103       4.34036350       0.51607196      -0.72008589      -0.17119762       0.91370744      -0.79216671      -0.12377988
Cr      12.36365795       8.83601665       2.82901525      -0.50146688       0.95907444       0.00685448      -0.34975585       1.02209544      -0.55851579
Ti      12.26230145       8.88103008       5.86827230       0.29696050       0.29683461       0.25634358       0.47534943       0.33737358       0.35795173
Cr      13.83982658       7.41575146       1.33771753      -0.63503855       0.12187802      -0.79159094      -0.26895407       0.05641960       0.09240209
V        8.10088444       6.88366079       7.02817440       0.12257305      -0.22751513      -0.59244185       0.18481538      -0.24408472       0.06411724
V        9.54226589       8.49658489       8.48832893       0.46666732       0.09671333      -0.16623779       0.04460836       0.37958989       0.64595628
Ti       9.18321133       5.68450022       8.94575214       0.78035814       0.02572095       0.19886972       0.51949668       0.41300762      -0.82669705
V       10.75867367       7.43073654      10.39575863      -0.20677149      -0.61166864       0.24192206       0.00987364       0.02582278      -0.00668151
Cr       7.62972116       7.30047846      10.47034931       0.20765771       0.41897251      -0.62458844       0.08532801      -0.17204738      -0.16436762
V       10.91996765       7.22628498       7.22231293      -0.20456351       0.54808838       0.16660027       0.21717089       0.21031880       0.17967594
Cr       9.21859837       5.94125128      11.86141682       0.24553545      -0.30670461       0.44950805       0.45834562      -0.08598920       0.35350999
V        9.18074608       8.76100254      12.01705933       0.46415044       0.63930109       0.45156516       0.16884193       0.64101923       0.49386656
V       13.83396816       7.33916473       7.50099277      -0.25232211       0.52875350      -0.41537832      -0.55566794       0.97470230      -0.27470180
V       12.21835804       8.97257996       8.82199001       0.51000404      -0.47243637       0.48093477       0.72422785      -0.70986384       0.44632336
Cr      12.29624081       5.88894796      11.86036777      -0.28380703       0.61801368      -0.05872632      -0.50141168       0.32852310       0.04524691
Cr      12.16338348       5.89996815       8.89842415       0.59312678      -0.46767871       0.58871199       0.69269699      -0.21951306       0.16143283
Cr      13.87431526       7.51481867      10.51297760      -0.94005271      -0.64754841      -0.91856949      -1.01661181      -0.27111971      -1.24231887
V       12.22386456       8.88350296      11.93410206       0.14721479       0.16271158       0.20417447       0.07242067       0.00994738      -0.14004377
122
Lattice="15.100251138 0.0 0.0 0.0 9.06015068278 0.0 0.0 0.0 12.0802009104" Properties=species:S:1:pos:R:3:force:R:3:forces:R:3 config_type=di-sia_aa parent_id=99999999 generation=9 step=22 variance=0.7520560026168823 loss=0.7520560026168823 energy=-1067.238929328093 pbc="T T T"
Cr       1.59723473       1.34842217       4.39555597      -0.36587870       0.14676284       0.26096739       0.22097215       0.18830162       0.52489221
Cr       0.08265096       2.89787030       2.89501977      -0.12586468       0.03433973       0.00158128      -0.04283035      -0.01667990      -0.04480880
V        1.62729049       1.40028608       1.42788208      -0.17162178      -0.48986580      -0.15185871      -0.14763941      -0.45458227      -0.23229507
Ti       0.13056892       2.93128133       5.93336535       0.14078846      -0.38299034       0.37673514       0.02098802       0.01132472       0.02336694
V        1.55762935       4.36021757       4.39589739       0.18610748       0.50910618      -0.20399171       0.77200794       0.23872285       0.13787082
V        3.05911684       3.00818563       2.94646573       0.70828261      -0.45906649       0.22706643      -0.12239966      -0.40931267       0.12411396
V        3.22081661       2.90241575       5.82007790       0.05657618       0.09440748       0.61230082      -0.64438522       0.20765936       0.61970389
V        1.56778860       4.39583492       1.43906033      -0.54401163      -0.17960151      -0.14616453      -0.01554575       0.05688716      -0.02617031
V        6.23452139       2.88561034       5.81914568      -0.36085173       0.22342113      -0.22283418       0.00531254       0.00395764       0.05916619
Ti       4.62321329       1.38040793       4.37445068       0.02737985       0.41010477       0.20490755       0.04962680       0.07872357       0.14262758
V        4.57296181       4.41534424       4.35752439       0.58339221      -0.41310784       0.35790154       0.41719854      -0.50344050       0.28419787
V        5.84448528       3.40342736       0.27494019      -0.11384728       0.34992072       0.13414051       0.04136060      -0.18584681       0.15040955
Cr       4.56255054       1.45228457       1.43439436       0.23210293      -0.18252576       0.81849694       0.00475752      -0.01514423      -0.06805863
V        6.06094122       2.82630062       3.01015186       0.45117081       0.29384156      -0.04562392       0.75481820       0.77005601      -0.44206592
V        4.44465494       4.57438946       1.51283920       0.74370913      -0.14887329       0.26904106       0.66437531      -0.23411962       0.35892570
V        1.59790897       1.38837850       7.40031004       0.26131946       0.19149700       0.17343776       0.01800443      -0.01263656      -0.02745300
V        1.56781375       1.39208937      10.44978714      -0.38663856       0.05685454       0.11397554      -0.06521758      -0.10436072      -0.11461996
Cr       1.64769065       4.37667608      10.57163906       0.13727101       0.13583651      -0.88998385      -0.52315438      -0.01786467      -1.46286476
V        0.20083007       2.95988894       8.94260597       0.31980143      -0.24163957      -0.15673077      -0.08874558      -0.09789668      -0.10907245
V        0.11631999       2.87069011      11.99491787      -0.04399461       0.71374445      -0.32658813      -0.01632353      -0.01567534       0.00189320
V        3.11535573       2.83709908       8.78332520       0.06444441       0.29233852       0.57134766      -0.12934934       0.53754365       0.37718201
Ti       3.02348280       2.93605208      12.05598545      -0.26497230      -0.51969992      -0.18017283       0.05049321      -0.02039725      -0.03075518
V        1.67931402       4.49232769       7.37715483      -0.33373474      -0.86551173      -0.01778362       0.01728854      -0.92133343       0.42040166
Cr       6.14688873       2.92397022       8.80782795      -0.21533768       0.38259120      -0.20219532       0.06353560      -0.01438870       0.02448030
V        4.38984299       1.67894101      10.65357971       0.04606738      -0.13662944      -0.72564571      -0.19403188       0.08682820       0.09532617
Cr       5.78966475       0.34192899       9.58774757      -0.49768628      -0.44644425      -0.38881894      -0.04834015      -0.04502174      -0.10720655
V        4.60642147       4.48951006      10.40767670       0.84579426      -0.11976945      -0.04409547       0.02904325      -0.02556334      -0.05049995
V        7.03348207       2.06863570      11.12060833       0.20467637      -0.14500744       0.22315949       0.19389427      -0.16859984       0.92695326
Ti       4.66912985       4.33775759       7.35659027      -0.10299785       0.12087042       0.03390648      -0.50781852       0.20225686      -0.02240174
Cr       4.78491974       1.29950631       7.28431463      -0.30070613       0.17801101      -0.04141129      -0.33504352       0.29170296      -0.34529361
Cr       1.64447343       7.42911816       1.37508941      -0.57124921       0.12971358       0.14083290      -0.02625205      -0.04370330       0.00338477
V        1.66143930       7.45329094       4.43821526      -0.04927341       0.67327227      -0.21320187      -0.11244129      -0.09702735      -0.22996663
V        3.08185744       5.89244223       2.97892785       0.20405911      -0.09021369       0.21004877       0.01873635       0.03383220      -0.03376911
V        0.26530507       8.86669064       2.80873489      -0.18632050       0.38292717       0.85834491      -0.58650374       0.62419713       0.44360155
Cr       0.13670050       5.89627552       5.91645765      -0.14441438       0.10345326       0.09956149       0.08964511       0.00356049       0.02224546
V        0.17394531       5.86799669       2.92396951       0.34691665       0.15178821       0.04977573      -0.12166341       0.07308006      -0.13759731
Ti       3.12413025       8.87687874       5.99610901       0.55589946      -0.01661753      -0.54239576       0.08788326      -0.01194436      -0.42110980
V        3.13619041       5.90059042       5.92027092       0.32578007      -0.09082330       0.10070624      -0.03157396      -0.02579356      -0.00221618
Ti       3.11817718       8.89208603       2.99980021      -0.10598743       0.13893450      -0.97835700       0.05739248       0.04995550      -0.17681956
V        0.04085936       8.91827679       5.93398905       0.47736408      -0.29318210      -0.35958845       0.89913571      -0.06666307       0.11519997
Ti       4.62917185       7.45178127       4.43676472      -0.04421467      -0.45298984       0.14297403      -0.03577807       0.00167091       0.03037488
Cr       6.13590431       5.86815834       5.89294863      -0.29879373      -0.13218156      -0.01322526      -0.04478928       0.02717961       0.03015693
Ti       6.25171566       5.92878151       2.94566393      -0.26575646      -0.45900853      -0.40911198      -0.06732573       0.00797422      -0.02143291
Cr       4.58575726       7.40168095       1.41871381       0.32157921       1.01157008      -0.15940702      -0.00663068      -0.02494051      -0.06560805
Cr       6.11485386       8.91676903       2.74106121       0.08684101       0.49760766       0.75684886       0.97315049      -0.07295267       1.22164476
V        6.33893204       8.93356419       5.86105442       0.28334670      -0.47145504       0.42007941      -0.21302208      -0.61572665      -1.26899338
Ti       1.62685108       7.41943741       7.46410751       0.22318832       0.07601629       0.24258350      -0.02946343       0.00572498      -0.01151765
Cr       1.62309623       7.48485374      10.41114140       0.18149125       0.19376652      -0.03438093      -0.03368788      -0.04285187       0.02984176
V        0.18728715       8.94292259      11.89190769       0.38191199       0.68472969       0.59474338      -0.04571617       0.64047813       0.57933354
Cr       0.08953410       5.88721752      11.96415615       0.32316610       0.07623081       0.35646339       0.09389885      -0.00496722       0.02748467
V        0.12671527       5.89077568       8.91500378       0.16851355       0.36920163       0.02375374       0.01583201      -0.02149262      -0.02182886
Cr       3.20911360       8.90213585       8.93546581      -0.72101319      -0.12608125      -0.00867691      -1.09927583       0.45425257       0.14262041
V        0.14694206       8.97004509       8.94222927      -0.06218527      -0.20815084      -0.08097632       0.02743013      -0.07798844      -0.00837248
Ti       3.17919874       5.86481762       8.90906143       0.33808416       0.28430536      -0.15309352       0.10708527       0.00798295      -0.04732853
V        3.09840488       8.99234390      11.92270660       0.53043149      -0.43887057       0.01169525      -0.03782398       0.03814281      -0.02140985
Cr       3.11406517       5.93260622      11.92231083      -0.37731737      -0.18181957       0.00480132       0.01676539      -0.07699082       0.11573045
Ti       6.20232010       8.84241962      12.07606602      -0.22597368      -0.38196772       0.23595474       0.34466323       0.21581571      -0.02486044
V        6.82729435       8.16607094       8.11410141      -0.47738432       0.42370668       0.10106515       0.07382859      -0.16964954      -0.01953109
V        6.28670883       5.85916424       8.96037292      -0.42451744      -0.54657170      -0.26559470      -1.19178820      -0.62311834      -0.51913732
Ti       4.69140816       7.43170547      10.49606419       0.14362377       0.08193017      -0.40977597       0.06862870      -0.52835983      -0.03703089
V        4.53400183       7.36604929       7.43782473       0.08852217      -0.14537783       0.23978172      -0.00682757       0.01642003       0.03638277
V        6.12260151       5.96777582      11.98555851      -0.08912998      -0.06012612      -0.02735899       0.02364723      -0.00942080       0.01155806
Cr      10.72127151       1.27799606       1.26071835       0.60077273       0.21397182       0.47973564      -0.00174692       0.43515751       0.04365667
V        7.65155983       1.37214470       4.33471632       0.01397884      -0.10314918      -0.28563602      -0.02424094       0.00190952       0.02246626
Ti       9.22061539       2.81897473       2.89851022      -0.20333036       0.07187285      -0.62561429      -0.30171996       0.55788630      -0.45436454
Cr       9.23355198       2.74460268       5.84365416       0.60718731       0.47678775       0.25825239       0.22092563       0.42409092       0.15240718
V        7.68973207       1.45939398       1.46272826      -0.20627133      -0.38632234       0.07867734      -0.01507749       0.03407153      -0.05976888
V       10.76076412       4.29446697       4.24287939      -0.13751938       0.00984185       0.24014408       0.01641530      -0.04525155      -0.00361387
Cr      10.82702255       1.35514987       4.32602739      -0.48956981      -0.76480001      -0.55770738      -0.00130113       0.07292370       0.03917657
V       10.66570568       4.56830168       1.24599648       0.16002877      -0.56169914       0.52305544       0.51772851      -1.41519582       0.72131795
Ti       7.70738745       4.32761240       4.27193308      -0.15720929      -0.02716086       0.15456123      -0.24331266      -0.18553631      -0.06081154
Ti       7.86880398       4.47926712       1.37511849      -0.55542950      -0.46068566       0.26292232      -1.06209922      -0.77731514       0.45255551
Cr      12.25863075       2.88440514       2.76383138      -0.28499339       0.45366599       0.15812236      -0.34904417       0.10617535       0.25173041
Cr      13.73804092       4.45576763       1.32048118       0.57068625      -0.87971677       0.10238262      -0.06481130      -0.17141986       0.13331267
Ti      13.77350998       1.32623267       1.30869806      -0.09987881      -0.28539337       0.10084127       0.02880245       0.04935528      -0.04794592
V       12.20962048       2.76245332       5.82023573       0.40802588       0.58628757       0.19605796       0.28612080       0.71636856       0.22580335
Ti      13.72754669       4.33127785       4.35721779      -0.49697074      -0.60335110      -0.25066359       0.04079263       0.06043334      -0.04014385
V       13.78472519       1.35631871       4.40811110       0.19050144      -0.65817263       0.02238316      -0.04056329       0.02534537       0.08568531
V       10.82182026       1.33219814       7.36105347      -0.67754629      -0.10541594      -0.41258002       0.00441696      -0.07117052      -0.00273936
Cr       9.10129833       2.89988637       8.93945312       0.65719973      -0.27156425       0.14251064       0.71693820      -0.31046569      -0.55963326
V        7.84833336       1.27737486       7.29246235      -0.50959902      -0.19928314       0.06368787      -0.78239030       0.49543092       0.15574878
V        7.68592215       4.22906399       7.33674383      -0.36268432      -0.22514473       0.56875242      -0.00524608       0.16509856       0.07778850
Ti       8.33830738       0.69562894       9.92625237      -0.23189620       0.61760264      -0.30347686      -0.04941633       0.07221489       0.08919575
V        9.28507519       2.87666798      11.96214771      -0.10284714       0.26637580       0.22787990      -0.00972463      -0.04852190      -0.00343521
Cr      10.86907768       1.37150311      10.34291553      -0.05040405      -0.23883826       0.30137553      -0.24278593      -0.30745456       0.70105737
V       10.82704639       4.22216225       7.43569899      -0.48397329       0.27257317      -0.03256060      -0.00427469       0.01386650       0.00076295
Cr      10.69910431       4.31378984      10.44270134       0.18844055       0.05568121      -0.63059327       0.05393138       0.02996470      -0.05108080
Cr       7.57267427       4.36674643      10.50040150      -0.02267244       0.88240902      -0.46483258       0.51529372       1.03908479       0.11427729
Cr      13.78485203       1.40011013       7.46979284      -0.35579214       0.25190929      -0.13503623       0.01652774       0.04983644      -0.00095041
V       12.23218060       2.87446904       9.05877590       0.21762209       0.32331312      -0.81482883       0.23916076       0.29018974      -1.35575330
V       13.68760490       4.38664484       7.39939022       0.07258204      -0.07280410       0.09094233       0.22349781      -0.37258658       0.24056250
Ti      13.69511986       1.41681349      10.50692081       0.05992922      -0.16685900      -0.03411302       0.48699975      -0.13823506      -0.63989180
V       12.22052383       2.96197462      11.94814491      -0.61321517      -0.32152958      -0.65962762       0.04224588      -0.08584902      -0.01235939
V       13.75516701       4.38156223      10.42043209      -0.59604501      -0.16360521       0.25432363      -0.00069396      -0.04898614      -0.00318170
Cr       9.46829414       5.66617203       5.70808983      -0.29799372      -0.49263579      -0.19565171      -0.00752688      -0.03378328      -0.01230255
V        9.24094391       5.93118000       2.84801841       0.09238354      -0.12181509      -0.34320362      -0.00300706      -0.00199555      -0.00863482
Cr       9.24239445       8.88516426       2.93301082       0.26222051      -0.07077882      -0.22257083      -0.55431104       0.03435114      -0.64685345
V        7.78477001       7.33682489       4.40121508      -0.56914194       0.59930740      -0.80182474      -0.47236931       0.04352721      -0.87298554
Cr       9.30675602       8.83375740       5.80209875       0.07795040       0.20374581       0.47107962      -0.00239753      -0.03519130       0.00242447
Ti      10.99508953       7.53090191       4.27945280      -0.43826408      -0.76782883      -0.76169399      -1.15256941      -1.59873486       0.14389521
V       10.75841427       7.41092777       1.29424596      -0.27787228      -0.04961746       0.30894648       0.03596222       0.07508712       0.15147106
V        7.69483662       7.35394526       1.37584674       0.33573548       0.17522303       0.29811776       0.05110148       0.04770825       0.03398122
Ti      12.36267662       5.82707262       5.59705496       0.17061196       0.22140618       0.97428221      -0.37385505       0.04105063       1.59470844
Ti      12.17751122       5.90612602       2.80673862       0.09103692       0.76714046       0.37649079       0.13082342      -0.00136429      -0.05308598
Cr      13.76487255       7.57455158       4.32632017       0.51607196      -0.72008589      -0.17119762       0.94456929      -1.33865142       0.01310998
Cr      12.37849426       8.83251762       2.86526012      -0.50146688       0.95907444       0.00685448      -0.42028677       1.23640680      -0.97968906
Ti      12.26597595       8.86509800       5.85972261       0.29696050       0.29683461       0.25634358       0.49796104       0.50596929       0.51601237
Cr      13.80721378       7.42873144       1.34272408      -0.63503855       0.12187802      -0.79159094       0.06666912      -0.01124031       0.00812735
V        8.11326981       6.86933136       7.04545355       0.12257305      -0.22751513      -0.59244185       0.21454430       0.11488744      -0.18861437
V        9.54166222       8.49708939       8.53147888       0.46666732       0.09671333      -0.16623779       0.09066235       0.32418939       0.23201577
Ti       9.13073540       5.69910908       8.92705154       0.78035814       0.02572095       0.19886972       0.95300454       0.21526323      -0.61157131
V       10.76810741       7.41900826      10.39954853      -0.20677149      -0.61166864       0.24192206      -0.01822639       0.07989949       0.02820504
Cr       7.67041063       7.30065250      10.45736980       0.20765771       0.41897251      -0.62458844       0.00962286      -0.12893063       0.03156498
V       10.94607544       7.27071571       7.23411798      -0.20456351       0.54808838       0.16660027      -0.02663957       0.00834870       0.09914199
Cr       9.27655220       5.92875242      11.91009331       0.24553545      -0.30670461       0.44950805       0.05231888       0.04568784      -0.08211657
V        9.17328167       8.72794914      12.03420448       0.46415044       0.63930109       0.45156516       0.26158911       0.85519779       0.36157021
V       13.82134342       7.35233974       7.51079559      -0.25232211       0.52875350      -0.41537832      -0.42089164       0.86843413      -0.34067804
V       12.22016335       8.97785759       8.80830860       0.51000404      -0.47243637       0.48093477       0.73283279      -0.75497651       0.50884378
Cr      12.28116512       5.92084599      11.87297821      -0.28380703       0.61801368      -0.05872632      -0.36083245       0.14610136      -0.09080946
Cr      12.14870262       5.90065384       8.91744709       0.59312678      -0.46767871       0.58871199       0.73841667      -0.26239449      -0.00785651
Cr      13.86884212       7.51221991      10.48568058      -0.94005271      -0.64754841      -0.91856949      -0.90476751      -0.19320762      -0.96996582
V       12.22144794       8.89454842      11.92067242       0.14721479       0.16271158       0.20417447       0.07624238      -0.04083279      -0.00071528
122
Lattice="15.100251138 0.0 0.0 0.0 9.06015068278 0.0 0.0 0.0 12.0802009104" Properties=species:S:1:pos:R:3:force:R:3:forces:R:3 config_type=di-sia_aa parent_id=99999999 generation=9 step=33 variance=0.87545245885849 loss=0.87545245885849 energy=-1067.3252588856178 pbc="T T T"
Cr       1.59771240       1.38564730       4.42485094      -0.36587870       0.14676284       0.26096739       0.24030906      -0.14789480       0.46016365
Cr       0.08752014       2.89424586       2.89960337      -0.12586468       0.03433973       0.00158128      -0.05745838      -0.00891266      -0.02348737
V        1.60599434       1.33404589       1.40289354      -0.17162178      -0.48986580      -0.15185871       0.04038183       0.06766765       0.02075926
Ti       0.13306962       2.94249082       5.93702650       0.14078846      -0.38299034       0.37673514       0.00341465      -0.02613551       0.02933919
V        1.58992422       4.36202383       4.40163994       0.18610748       0.50910618      -0.20399171       0.55220664       0.18718144       0.04882094
V        3.04920816       2.99197912       2.98136830       0.70828261      -0.45906649       0.22706643       0.01186357      -0.30333352      -0.16628973
V        3.24112010       2.89718628       5.84384918       0.05657618       0.09440748       0.61230082      -0.82386458       0.28824323       0.45403689
V        1.57814419       4.40057611       1.43578982      -0.54401163      -0.17960151      -0.14616453      -0.05833087      -0.04992657       0.04298976
V        6.23502493       2.88610172       5.83541918      -0.36085173       0.22342113      -0.22283418       0.02596782       0.01106967      -0.01554997
Ti       4.64851189       1.37807763       4.40000725       0.02737985       0.41010477       0.20490755      -0.03179890       0.06938143      -0.07151956
V        4.58389616       4.38177347       4.35508299       0.58339221      -0.41310784       0.35790154       0.39577135      -0.26496953       0.26565182
V        5.84700441       3.39613485       0.27815673      -0.11384728       0.34992072       0.13414051       0.03456420      -0.24673641      -0.03236985
Cr       4.55671883       1.45539701       1.42929029       0.23210293      -0.18252576       0.81849694       0.00297889      -0.00731885       0.01199413
V        6.08231592       2.86073709       2.98073888       0.45117081       0.29384156      -0.04562392       0.59653890       0.50418198      -0.27440491
V        4.45066071       4.57706165       1.49331927       0.74370913      -0.14887329       0.26904106       0.61172581      -0.27112827       0.55996788
V        1.60064125       1.38084686       7.40960455       0.26131946       0.19149700       0.17343776       0.03170200       0.01043597      -0.01622472
V        1.55725026       1.38910675      10.43362045      -0.38663856       0.05685454       0.11397554       0.00540560      -0.02292212      -0.03055948
Cr       1.64282584       4.40177822      10.59313965       0.13727101       0.13583651      -0.88998385      -0.46015906      -0.11913705      -1.59870458
V        0.18966047       2.96723127       8.93880367       0.31980143      -0.24163957      -0.15673077      -0.02376862      -0.13785097      -0.06046277
V        0.12002021       2.86983204      11.99386215      -0.04399461       0.71374445      -0.32658813      -0.04835315      -0.01982029       0.03198504
V        3.10599995       2.85213470       8.79269981       0.06444441       0.29233852       0.57134766      -0.12212722       0.49813184       0.43376729
Ti       3.02781129       2.93394613      12.04027081      -0.26497230      -0.51969992      -0.18017283      -0.00353087      -0.06520949       0.01565469
V        1.68812585       4.48313284       7.37577915      -0.33373474      -0.86551173      -0.01778362      -0.04001364      -0.81259429       0.47079572
Cr       6.16915131       2.91182160       8.81211472      -0.21533768       0.38259120      -0.20219532      -0.13046131       0.00270635       0.05157967
V        4.40431309       1.68741727      10.65799713       0.04606738      -0.13662944      -0.72564571      -0.22760522       0.08748411       0.09048334
Cr       5.78246975       0.33929506       9.58430576      -0.49768628      -0.44644425      -0.38881894      -0.04330302       0.04019294      -0.18475251
V        4.61232758       4.48951149      10.40521145       0.84579426      -0.11976945      -0.04409547      -0.00207397       0.00059258      -0.00246669
V        7.07046223       2.05157113      11.13822651       0.20467637      -0.14500744       0.22315949      -0.03007518       0.05825803       0.94580460
Ti       4.63486195       4.31820202       7.36196995      -0.10299785       0.12087042       0.03390648      -0.23203556       0.33868295      -0.01519955
Cr       4.72326946       1.35055351       7.24723482      -0.30070613       0.17801101      -0.04141129       0.09531488      -0.01077275      -0.01214294
Cr       1.63424313       7.42246580       1.37208545      -0.57124921       0.12971358       0.14083290      -0.02718446      -0.00376443       0.00531228
V        1.64660549       7.43662167       4.38085413      -0.04927341       0.67327227      -0.21320187       0.00860528       0.04006694       0.05819843
V        3.08737206       5.89116526       2.96560550       0.20405911      -0.09021369       0.21004877       0.04004344      -0.02168598      -0.00789003
V        0.24373510       8.87857914       2.81647849      -0.18632050       0.38292717       0.85834491      -0.41045934       0.56392092       0.44225389
Cr       0.13852939       5.89627647       5.90985346      -0.14441438       0.10345326       0.09956149       0.07806829       0.02876711       0.03181760
V        0.15489748       5.86730385       2.90448570       0.34691665       0.15178821       0.04977573      -0.02094328       0.03910565      -0.04475405
Ti       3.13507867       8.86757278       6.01661968       0.55589946      -0.01661753      -0.54239576      -0.10356518      -0.03934819      -0.61447936
V        3.12782025       5.90032148       5.91558504       0.32578007      -0.09082330       0.10070624       0.01687081      -0.00779169      -0.05093836
Ti       3.11494303       8.90936565       2.97418356      -0.10598743       0.13893450      -0.97835700       0.01094394      -0.00133174       0.00922143
V        0.05694292       8.91106319       5.94053793       0.47736408      -0.29318210      -0.35958845       0.81064832      -0.02074033       0.06056762
Ti       4.62570238       7.46073294       4.43357038      -0.04421467      -0.45298984       0.14297403      -0.03308012      -0.00005238      -0.00642879
Cr       6.12548876       5.87751436       5.89137173      -0.29879373      -0.13218156      -0.01322526       0.00018641      -0.00581110       0.11247315
Ti       6.23659706       5.92731905       2.93923473      -0.26575646      -0.45900853      -0.40911198       0.01669947      -0.00808919      -0.03727797
Cr       4.58527327       7.41206694       1.40207243       0.32157921       1.01157008      -0.15940702       0.04424135      -0.01694283      -0.02045947
Cr       6.11032486       8.93363857       2.73530364       0.08684101       0.49760766       0.75684886       0.98631501      -0.17949477       1.28930330
V        6.38537884       8.91288185       5.87556219       0.28334670      -0.47145504       0.42007941      -0.50600719      -0.39561403      -1.32471180
Ti       1.63200510       7.42203522       7.46048784       0.22318832       0.07601629       0.24258350      -0.02172090       0.00563373       0.02343364
Cr       1.61217391       7.47193766      10.41838551       0.18149125       0.19376652      -0.03438093      -0.01013811       0.05461333       0.02789194
V        0.19966549       8.99688435      11.93064308       0.38191199       0.68472969       0.59474338      -0.30659744       0.10005729       0.18066838
Cr       0.09262290       5.87586927      11.97500515       0.32316610       0.07623081       0.35646339      -0.05868429       0.02622675      -0.00754615
V        0.12908588       5.89597511       8.91556263       0.16851355       0.36920163       0.02375374      -0.00345647      -0.06671275      -0.04809187
Cr       3.23169732       8.90516949       8.95493412      -0.72101319      -0.12608125      -0.00867691      -1.25272012       0.43493772       0.01304104
V        0.14568961       8.96123791       8.93621445      -0.06218527      -0.20815084      -0.08097632       0.01031511      -0.04997610       0.01114501
Ti       3.20411706       5.86996126       8.90362263       0.33808416       0.28430536      -0.15309352      -0.05546913      -0.01888246       0.01623130
V        3.07488847       8.99550915      11.90265369       0.53043149      -0.43887057       0.01169525       0.11665943      -0.01311052       0.02401780
Cr       3.12199831       5.92076540      11.94900608      -0.37731737      -0.18181957       0.00480132       0.01695067      -0.00034748      -0.04888863
Ti       6.25387716       8.85764885      12.07593536      -0.22597368      -0.38196772       0.23595474       0.07945835       0.13112649       0.00564714
V        6.83131075       8.15353489       8.12072849      -0.47738432       0.42370668       0.10106515       0.01669022      -0.07936248      -0.00396919
V        6.30763960       5.87802267       8.98567104      -0.42451744      -0.54657170      -0.26559470      -1.37972903      -0.72062922      -0.71382451
Ti       4.69140244       7.43525267      10.50060463       0.14362377       0.08193017      -0.40977597       0.11966275      -0.57687485       0.02696058
V        4.52445793       7.37271404       7.43886185       0.08852217      -0.14537783       0.23978172       0.04165145      -0.01831486       0.02937035
V        6.13308287       5.96529627      11.98521328      -0.08912998      -0.06012612      -0.02735899      -0.03005477       0.05197701       0.01825202
Cr      10.71051407       1.32916546       1.25994527       0.60077273       0.21397182       0.47973564       0.05629091       0.02521395      -0.00821816
V        7.66729736       1.37259603       4.33962107       0.01397884      -0.10314918      -0.28563602      -0.04844507      -0.00769041       0.03525353
Ti       9.22902584       2.78375649       2.89717078      -0.20333036       0.07187285      -0.62561429      -0.45583081       0.82477474      -0.45255393
Cr       9.25877857       2.77475905       5.83949709       0.60718731       0.47678775       0.25825239      -0.05087570       0.16937855       0.27838716
V        7.69276047       1.45729136       1.46082497      -0.20627133      -0.38632234       0.07867734       0.02089494       0.02990903       0.01633660
V       10.75945377       4.29133034       4.23226690      -0.13751938       0.00984185       0.24014408       0.06360617       0.03132461       0.02155324
Cr      10.82655048       1.36026847       4.32120323      -0.48956981      -0.76480001      -0.55770738      -0.01858924      -0.03131711       0.02025699
V       10.66658115       4.56980419       1.26151407       0.16002877      -0.56169914       0.52305544       0.47336003      -1.40258157       0.61824799
Ti       7.65026855       4.29159403       4.26184320      -0.15720929      -0.02716086       0.15456123       0.06670875       0.00216495      -0.01309825
Ti       7.86773443       4.45135975       1.34868419      -0.55542950      -0.46068566       0.26292232      -1.01000690      -0.62408721       0.58129257
Cr      12.23852825       2.88246226       2.74686003      -0.28499339       0.45366599       0.15812236      -0.22510278       0.16661376       0.45339119
Cr      13.72610378       4.42445755       1.33544385       0.57068625      -0.87971677       0.10238262      -0.01333277       0.02037930      -0.02655245
Ti      13.76791286       1.33387566       1.32815599      -0.09987881      -0.28539337       0.10084127      -0.00297261       0.02793049      -0.13009651
V       12.20291138       2.75149107       5.80497408       0.40802588       0.58628757       0.19605796       0.34485349       0.80784523       0.34628710
Ti      13.72875309       4.33656454       4.34755373      -0.49697074      -0.60335110      -0.25066359       0.01894433       0.01904199       0.00088992
V       13.77139187       1.35369492       4.43240547       0.19050144      -0.65817263       0.02238316       0.06226502       0.08256063      -0.05639212
V       10.81802750       1.31147301       7.36737204      -0.67754629      -0.10541594      -0.41258002       0.00882045       0.12282217      -0.07231791
Cr       9.07537842       2.89671969       8.95754051       0.65719973      -0.27156425       0.14251064       0.91789150      -0.36300462      -0.66156882
V        7.80905533       1.28643525       7.30554962      -0.50959902      -0.19928314       0.06368787      -0.46883231       0.47461951      -0.00074154
V        7.68157244       4.25394773       7.34702587      -0.36268432      -0.22514473       0.56875242      -0.02952668       0.03465050       0.03690874
Ti       8.32396507       0.69359970       9.93540192      -0.23189620       0.61760264      -0.30347686       0.01872763       0.02479572       0.04589292
V        9.28578091       2.88035488      11.94992924      -0.10284714       0.26637580       0.22787990       0.07159342      -0.05117208       0.04193128
Cr      10.87691879       1.35665381      10.34244347      -0.05040405      -0.23883826       0.30137553      -0.27219462      -0.21377949       0.72663593
V       10.83438301       4.22141933       7.43602276      -0.48397329       0.27257317      -0.03256060      -0.02948773       0.04640616      -0.01406506
Cr      10.71681595       4.31838751      10.44818497       0.18844055       0.05568121      -0.63059327      -0.03533918      -0.01623342      -0.03410973
Cr       7.56783342       4.37900639      10.51208973      -0.02267244       0.88240902      -0.46483258       0.51399177       0.90990722       0.16093016
Cr      13.78937340       1.40492404       7.46972847      -0.35579214       0.25190929      -0.13503623      -0.03043130      -0.02206673      -0.03959846
V       12.22158337       2.88468575       9.05332661       0.21762209       0.32331312      -0.81482883       0.32068872       0.15155327      -1.33049870
V       13.71035194       4.35554171       7.42174435       0.07258204      -0.07280410       0.09094233       0.10999601      -0.19331281       0.11027563
Ti      13.70018387       1.41967893      10.51941586       0.05992922      -0.16685900      -0.03411302       0.41945761      -0.14968958      -0.72200650
V       12.22237206       2.95192766      11.94522381      -0.61321517      -0.32152958      -0.65962762       0.04244062      -0.00489162      -0.00031246
V       13.74938297       4.37155199      10.42417049      -0.59604501      -0.16360521       0.25432363       0.01348853       0.07098415       0.03550644
Cr       9.46060085       5.65940714       5.69066715      -0.29799372      -0.49263579      -0.19565171      -0.00576967       0.03331049       0.07261139
V        9.24125576       5.92880630       2.84252977       0.09238354      -0.12181509      -0.34320362      -0.04139427      -0.02975085       0.02841488
Cr       9.24434566       8.88205910       2.92120957       0.26222051      -0.07077882      -0.22257083      -0.49809560       0.07429640      -0.53870076
V        7.79958773       7.32870054       4.40288496      -0.56914194       0.59930740      -0.80182474      -0.51343417       0.07676154      -0.92473239
Cr       9.31254005       8.83928108       5.80780697       0.07795040       0.20374581       0.47107962       0.00375469       0.01159462       0.02082175
Ti      11.00129414       7.53660297       4.28075504      -0.43826408      -0.76782883      -0.76169399      -1.25562239      -1.73225665       0.07998249
V       10.76242256       7.41788816       1.31201410      -0.27787228      -0.04961746       0.30894648      -0.00946087       0.01558440       0.04679121
V        7.69739914       7.36135817       1.38699532       0.33573548       0.17522303       0.29811776       0.04816255      -0.04732948       0.00511154
Ti      12.36749363       5.84732676       5.58837509       0.17061196       0.22140618       0.97428221      -0.34047049      -0.13223621       1.61928976
Ti      12.20502853       5.90593529       2.80055404       0.09103692       0.76714046       0.37649079      -0.03028123      -0.00034894       0.00386282
Cr      13.76769829       7.59165382       4.32242393       0.51607196      -0.72008589      -0.17119762       1.02119541      -1.48482823       0.01789421
Cr      12.37127781       8.81721020       2.85509992      -0.50146688       0.95907444       0.00685448      -0.41838598       1.37817168      -0.98643249
Ti      12.26119137       8.84714985       5.83890820       0.29696050       0.29683461       0.25634358       0.51628131       0.66692227       0.75943780
Cr      13.82288742       7.42966175       1.33100927      -0.63503855       0.12187802      -0.79159094      -0.05148716      -0.01521976      -0.04093667
V        8.13375854       6.89316654       7.04173851       0.12257305      -0.22751513      -0.59244185       0.28384587      -0.12789300      -0.11813433
V        9.54815865       8.52537727       8.55812454       0.46666732       0.09671333      -0.16623779       0.04204622       0.03384095       0.04207082
Ti       9.12311459       5.64383888       8.95281792       0.78035814       0.02572095       0.19886972       1.03785157       0.67658663      -0.85034335
V       10.76145649       7.42180347      10.41047859      -0.20677149      -0.61166864       0.24192206       0.01943590       0.04589932      -0.03811941
Cr       7.68149614       7.29699993      10.45173931       0.20765771       0.41897251      -0.62458844       0.03756489      -0.10127338       0.10114428
V       10.95639420       7.26172686       7.24507380      -0.20456351       0.54808838       0.16660027      -0.15158395       0.04661624       0.09414528
Cr       9.27968788       5.93068552      11.91359806       0.24553545      -0.30670461       0.44950805       0.02695307       0.01584550      -0.01319739
V        9.15996933       8.71565247      12.04979038       0.46415044       0.63930109       0.45156516       0.38102555       0.97763699       0.29320288
V       13.80391216       7.37117958       7.51604033      -0.25232211       0.52875350      -0.41537832      -0.26160282       0.74325311      -0.38417554
V       12.20962143       8.97926044       8.79421043       0.51000404      -0.47243637       0.48093477       0.84750617      -0.77451992       0.59233022
Cr      12.22819901       5.94287062      11.86744022      -0.28380703       0.61801368      -0.05872632       0.02159246       0.01734082      -0.00099487
Cr      12.16114521       5.89004040       8.93227863       0.59312678      -0.46767871       0.58871199       0.63918799      -0.24182078      -0.13811556
Cr      13.86203861       7.49483681      10.44704723      -0.94005271      -0.64754841      -0.91856949      -0.75835443       0.05947198      -0.55061424
V       12.22344875       8.89456081      11.93539429       0.14721479       0.16271158       0.20417447       0.04909998      -0.02980909      -0.04666671
122
Lattice="15.100251138 0.0 0.0 0.0 9.06015068278 0.0 0.0 0.0 12.0802009104" Properties=species:S:1:pos:R:3:force:R:3:forces:R:3 config_type=di-sia_aa parent_id=99999999 generation=9 step=44 variance=0.9487120509147644 loss=0.9487120509147644 energy=-1067.2503984176842 pbc="T T T"
Cr       1.62237394       1.37986195       4.48695326      -0.36587870       0.14676284       0.26096739       0.03355645      -0.06693135       0.02404830
Cr       0.08557183       2.89660025       2.91065168      -0.12586468       0.03433973       0.00158128       0.03697677      -0.01867708       0.02225147
V        1.59959269       1.33550298       1.39517546      -0.17162178      -0.48986580      -0.15185871       0.03442157       0.02418783       0.12694147
Ti       0.14313705       2.94369388       5.94218588       0.14078846      -0.38299034       0.37673514      -0.00814959       0.01311281      -0.00894241
V        1.63100302       4.37550402       4.39487839       0.18610748       0.50910618      -0.20399171       0.24841952       0.04904516       0.03857961
V        3.04264593       2.94601822       2.96059585       0.70828261      -0.45906649       0.22706643       0.04451044      -0.04566020      -0.02983516
V        3.22470880       2.90247464       5.86215830       0.05657618       0.09440748       0.61230082      -0.68464410       0.27731243       0.36942929
V        1.57100737       4.39041519       1.42809725      -0.54401163      -0.17960151      -0.14616453       0.00081526      -0.00040985       0.08844104
V        6.24178839       2.89011502       5.82450628      -0.36085173       0.22342113      -0.22283418      -0.03843153       0.00812813       0.04615306
Ti       4.63893509       1.38385439       4.39225674       0.02737985       0.41010477       0.20490755       0.02104237       0.01979448      -0.02194632
V        4.57614756       4.35417604       4.36424971       0.58339221      -0.41310784       0.35790154       0.47263926      -0.13340665       0.14510584
V        5.84601974       3.39661217       0.27525765      -0.11384728       0.34992072       0.13414051       0.00777196      -0.21796183      -0.03657063
Cr       4.55890656       1.44404030       1.42597342       0.23210293      -0.18252576       0.81849694       0.02233661       0.06569195       0.00038739
V        6.11798716       2.88710618       2.97045231       0.45117081       0.29384156      -0.04562392       0.37383634       0.31457540      -0.20954233
V        4.45549059       4.58012486       1.49454868       0.74370913      -0.14887329       0.26904106       0.60605735      -0.35708839       0.53216189
V        1.60941112       1.38281834       7.41452932       0.26131946       0.19149700       0.17343776      -0.01305784       0.00806075       0.03020561
V        1.55574489       1.38157618      10.44594574      -0.38663856       0.05685454       0.11397554       0.01525601       0.00768887      -0.07318984
Cr       1.65836096       4.41456985      10.59872913       0.13727101       0.13583651      -0.88998385      -0.57101947      -0.18311827      -1.62712097
V        0.19641808       2.94125032       8.95326042       0.31980143      -0.24163957      -0.15673077      -0.03187311      -0.00341997      -0.07296412
V        0.11406973       2.86526012      11.99713135      -0.04399461       0.71374445      -0.32658813       0.00563747       0.09952514       0.02062304
V        3.10810328       2.87038898       8.80422306       0.06444441       0.29233852       0.57134766      -0.11601339       0.40046048       0.37564313
Ti       3.02815509       2.92833924      12.03817844      -0.26497230      -0.51969992      -0.18017283       0.01032112      -0.04325413       0.01694923
V        1.68385351       4.49073648       7.37436247      -0.33373474      -0.86551173      -0.01778362      -0.02166579      -0.86973810       0.51157665
Cr       6.16357851       2.90908909       8.82021999      -0.21533768       0.38259120      -0.20219532      -0.11028178      -0.00172318       0.04469742
V        4.39928246       1.69468403      10.65717411       0.04606738      -0.13662944      -0.72564571      -0.14249162       0.05729882       0.09747370
Cr       5.77176714       0.34361976       9.57363796      -0.49768628      -0.44644425      -0.38881894       0.00196772      -0.05063390      -0.05092980
V        4.62013054       4.49175644      10.39814854       0.84579426      -0.11976945      -0.04409547      -0.05539906       0.00017534       0.03963182
V        7.08120441       2.04830313      11.15275478       0.20467637      -0.14500744       0.22315949      -0.06689876       0.10382857       0.77907485
Ti       4.61106634       4.32655239       7.35825729      -0.10299785       0.12087042       0.03390648      -0.07918555       0.24852934       0.00619480
Cr       4.73221111       1.34455204       7.23163986      -0.30070613       0.17801101      -0.04141129      -0.01660249       0.02368633      -0.00436292
Cr       1.63322282       7.43099594       1.37221873      -0.57124921       0.12971358       0.14083290      -0.05211281      -0.05811667      -0.01600393
V        1.64850771       7.45165825       4.37641811      -0.04927341       0.67327227      -0.21320187      -0.00408842      -0.08957379       0.00621361
V        3.10399604       5.87898684       2.95725465       0.20405911      -0.09021369       0.21004877      -0.04277175       0.01482289       0.00538347
V        0.22719438       8.86549377       2.80360270      -0.18632050       0.38292717       0.85834491      -0.24527006       0.71856630       0.56663305
Cr       0.14468496       5.90526438       5.90976620      -0.14441438       0.10345326       0.09956149      -0.04410452      -0.00037670      -0.00015143
V        0.14110354       5.87756062       2.89246202       0.34691665       0.15178821       0.04977573       0.09060037      -0.03458661       0.04181847
Ti       3.11163545       8.86041737       5.99083757       0.55589946      -0.01661753      -0.54239576       0.10034811      -0.05131025      -0.37870452
V        3.12984395       5.90090084       5.89871502       0.32578007      -0.09082330       0.10070624       0.01124501       0.01769231       0.01554401
Ti       3.11900187       8.90975285       2.96948552      -0.10598743       0.13893450      -0.97835700      -0.02898639       0.03682885       0.03599275
V        0.06532349       8.91050529       5.93376970       0.47736408      -0.29318210      -0.35958845       0.75025988      -0.00172991       0.13510388
Ti       4.62454414       7.45486593       4.43117332      -0.04421467      -0.45298984       0.14297403      -0.00571438       0.02171057      -0.02512092
Cr       6.11971760       5.88609552       5.91097546      -0.29879373      -0.13218156      -0.01322526       0.01769216      -0.00744575       0.01114154
Ti       6.24487638       5.92164326       2.93564725      -0.26575646      -0.45900853      -0.40911198      -0.01432410       0.01440133      -0.00349625
Cr       4.59368706       7.40471745       1.38802552       0.32157921       1.01157008      -0.15940702       0.03294970       0.00563035       0.05220519
Cr       6.09869051       8.94826603       2.73399997       0.08684101       0.49760766       0.75684886       1.04409218      -0.29322803       1.28994751
V        6.39347887       8.90447712       5.89209557       0.28334670      -0.47145504       0.42007941      -0.50371361      -0.38065237      -1.48236370
Ti       1.62489271       7.42659283       7.46822453       0.22318832       0.07601629       0.24258350       0.03968374      -0.00481240      -0.01011793
Cr       1.60496235       7.48233461      10.42083454       0.18149125       0.19376652      -0.03438093       0.00896688       0.02791858       0.03305224
V        0.14174023       9.01518345      11.96556377       0.38191199       0.68472969       0.59474338       0.08389010      -0.01776698      -0.03353774
Cr       0.09711885       5.89159012      11.97523594       0.32316610       0.07623081       0.35646339      -0.06732282      -0.02304230      -0.00083066
V        0.12750657       5.88028574       8.89884281       0.16851355       0.36920163       0.02375374      -0.00539757       0.02110977       0.05637966
Cr       3.24524546       8.89575768       8.95693398      -0.72101319      -0.12608125      -0.00867691      -1.31389236       0.45369744       0.02378908
V        0.14133802       8.96982193       8.94364738      -0.06218527      -0.20815084      -0.08097632       0.04290272      -0.05941897      -0.00481531
Ti       3.20552540       5.86874676       8.89699745       0.33808416       0.28430536      -0.15309352      -0.07690826       0.01788209       0.04374969
V        3.09624124       8.98099422      11.90127182       0.53043149      -0.43887057       0.01169525      -0.05779743       0.05904378       0.01562463
Cr       3.12462306       5.93405819      11.94047356      -0.37731737      -0.18181957       0.00480132      -0.00236077      -0.07324527       0.04665890
Ti       6.27140903       8.88006592      12.08014202      -0.22597368      -0.38196772       0.23595474      -0.00679363       0.00382229      -0.03283938
V        6.83021450       8.13612366       8.12951660      -0.47738432       0.42370668       0.10106515       0.14372407      -0.06383215      -0.11694046
V        6.33780432       5.87372398       8.98187447      -0.42451744      -0.54657170      -0.26559470      -1.61505163      -0.67977989      -0.72847319
Ti       4.68935061       7.40966845      10.51492023       0.14362377       0.08193017      -0.40977597       0.25617126      -0.34667945      -0.13466918
V        4.51821375       7.37410736       7.44049835       0.08852217      -0.14537783       0.23978172       0.03528752      -0.00835746      -0.00986609
V        6.13864136       5.96704054      11.99559975      -0.08912998      -0.06012612      -0.02735899      -0.02163502       0.04559714      -0.03932866
Cr      10.72411442       1.32553101       1.25427544       0.60077273       0.21397182       0.47973564      -0.06988236       0.00763002       0.02458990
V        7.67121124       1.37241244       4.34688377       0.01397884      -0.10314918      -0.28563602      -0.05044636       0.02333529       0.01524924
Ti       9.20816898       2.74758363       2.87715864      -0.20333036       0.07187285      -0.62561429      -0.30494386       1.01734400      -0.27977961
Cr       9.25032234       2.81591320       5.88452291       0.60718731       0.47678775       0.25825239       0.02274459      -0.05723680      -0.04162357
V        7.69851923       1.47137654       1.46570456      -0.20627133      -0.38632234       0.07867734      -0.00201289      -0.04248530      -0.00711193
V       10.76193905       4.29447937       4.23905039      -0.13751938       0.00984185       0.24014408      -0.02939535      -0.03318214      -0.00121209
Cr      10.81801701       1.33779681       4.33320475      -0.48956981      -0.76480001      -0.55770738      -0.03108935       0.10408206      -0.01952383
V       10.65843391       4.58564520       1.27317643       0.16002877      -0.56169914       0.52305544       0.52135527      -1.51335180       0.51446891
Ti       7.66135168       4.29449797       4.26325703      -0.15720929      -0.02716086       0.15456123      -0.02472333      -0.00129792       0.01968603
Ti       7.87415457       4.45389700       1.34380662      -0.55542950      -0.46068566       0.26292232      -1.04143369      -0.66623628       0.56057918
Cr      12.22550392       2.86938119       2.74372149      -0.28499339       0.45366599       0.15812236      -0.13174069       0.26951385       0.51731336
Cr      13.72290421       4.43572617       1.32862937       0.57068625      -0.87971677       0.10238262      -0.01187083      -0.03487854       0.00759269
Ti      13.75699902       1.34494042       1.32178938      -0.09987881      -0.28539337       0.10084127       0.00784892      -0.01276276      -0.02943769
V       12.19105434       2.72893953       5.79495335       0.40802588       0.58628757       0.19605796       0.43577999       0.95983446       0.38389361
Ti      13.72934437       4.34350824       4.35398197      -0.49697074      -0.60335110      -0.25066359       0.00460864      -0.05024323      -0.05071433
V       13.78013039       1.35641420       4.42621136       0.19050144      -0.65817263       0.02238316       0.01463464       0.06218878      -0.04321930
V       10.81576729       1.33712137       7.35846043      -0.67754629      -0.10541594      -0.41258002       0.02765940      -0.07069177      -0.00754813
Cr       9.08349133       2.88986874       8.94964504       0.65719973      -0.27156425       0.14251064       0.87462282      -0.45532101      -0.57364166
V        7.82100439       1.28782272       7.28773260      -0.50959902      -0.19928314       0.06368787      -0.58882987       0.42155045       0.18594733
V        7.66077518       4.26256752       7.36199665      -0.36268432      -0.22514473       0.56875242       0.01621169       0.00181746      -0.05488433
Ti       8.32255936       0.69089651       9.94161892      -0.23189620       0.61760264      -0.30347686      -0.00998010      -0.00346380      -0.03560001
V        9.28078270       2.87598395      11.93978596      -0.10284714       0.26637580       0.22787990       0.15684593      -0.03983507       0.10694163
Cr      10.87855911       1.34142148      10.36701965      -0.05040405      -0.23883826       0.30137553      -0.22584948      -0.13186085       0.52336794
V       10.84455204       4.23318434       7.43107557      -0.48397329       0.27257317      -0.03256060      -0.04951236       0.01586002       0.01037361
Cr      10.71135330       4.30331898      10.44790459       0.18844055       0.05568121      -0.63059327       0.02624933       0.01581409       0.00233159
Cr       7.56901121       4.40280056      10.50895500      -0.02267244       0.88240902      -0.46483258       0.47477174       0.57630223       0.27657229
Cr      13.78627205       1.39795482       7.45812607      -0.35579214       0.25190929      -0.13503623       0.00301438       0.00956897       0.01182294
V       12.20959377       2.88368988       9.04806519       0.21762209       0.32331312      -0.81482883       0.39607686       0.08965616      -1.23517466
V       13.72622871       4.30594110       7.43908882       0.07258204      -0.07280410       0.09094233       0.01958863       0.04367854       0.02876610
Ti      13.71404934       1.42083156      10.51890755       0.05992922      -0.16685900      -0.03411302       0.26229531      -0.14022529      -0.73883343
V       12.22610092       2.95350957      11.94984722      -0.61321517      -0.32152958      -0.65962762      -0.00323759       0.01926345      -0.04401172
V       13.74858952       4.38948393      10.43932247      -0.59604501      -0.16360521       0.25432363       0.04413245      -0.07875535      -0.10303887
Cr       9.45119286       5.66733122       5.68401098      -0.29799372      -0.49263579      -0.19565171       0.12688415      -0.06693862       0.00330937
V        9.23381805       5.92174387       2.85117102       0.09238354      -0.12181509      -0.34320362       0.03268931       0.01412046      -0.04995417
Cr       9.25041771       8.88422680       2.91367888       0.26222051      -0.07077882      -0.22257083      -0.46901679       0.02691379      -0.51629615
V        7.81236172       7.32181549       4.37525320      -0.56914194       0.59930740      -0.80182474      -0.59821582       0.11581846      -0.73867846
Cr       9.30936813       8.84148312       5.80244207       0.07795040       0.20374581       0.47107962       0.02828985      -0.02105740       0.01434271
Ti      11.00877762       7.51666641       4.26963425      -0.43826408      -0.76782883      -0.76169399      -1.38624620      -1.58310437       0.08702707
V       10.77068710       7.41809368       1.30082548      -0.27787228      -0.04961746       0.30894648      -0.07672518      -0.01955265       0.11092378
V        7.70702887       7.35361528       1.38847196       0.33573548       0.17522303       0.29811776      -0.00582070       0.04278400       0.00688702
Ti      12.34051132       5.86092424       5.56268406       0.17061196       0.22140618       0.97428221      -0.09687711      -0.25348920       1.76590908
Ti      12.20575905       5.89930439       2.79986882       0.09103692       0.76714046       0.37649079      -0.00725480      -0.00453019      -0.02037394
Cr      13.75832748       7.60867596       4.31960678       0.51607196      -0.72008589      -0.17119762       1.13912427      -1.65349901       0.04352242
Cr      12.38286591       8.81126213       2.84454441      -0.50146688       0.95907444       0.00685448      -0.55423588       1.43754232      -0.97633052
Ti      12.25976849       8.83513451       5.84009695       0.29696050       0.29683461       0.25634358       0.49319479       0.74426788       0.76369226
Cr      13.80230808       7.42398930       1.32428277      -0.63503855       0.12187802      -0.79159094       0.03013406       0.00192890      -0.03985541
V        8.15578175       6.88177538       7.02924585       0.12257305      -0.22751513      -0.59244185       0.08943894       0.10759207       0.07406527
V        9.55511189       8.53290081       8.55391312       0.46666732       0.09671333      -0.16623779      -0.02357354       0.05580069       0.11946281
Ti       9.11124992       5.58729076       8.94334412       0.78035814       0.02572095       0.19886972       1.16430593       1.11102200      -0.86030072
V       10.76793861       7.41321754      10.40306473      -0.20677149      -0.61166864       0.24192206      -0.04357683       0.09832121      -0.03580669
Cr       7.68862915       7.29444408      10.45997620       0.20765771       0.41897251      -0.62458844       0.02879805      -0.03133759       0.03499277
V       10.93945694       7.26532936       7.25292349      -0.20456351       0.54808838       0.16660027      -0.02785658      -0.02762549       0.03946054
Cr       9.29200363       5.93141270      11.90604877       0.24553545      -0.30670461       0.44950805      -0.01255465      -0.01639801       0.02260787
V        9.14784050       8.70790195      12.04959488       0.46415044       0.63930109       0.45156516       0.49176782       1.03126931       0.29461268
V       13.80725288       7.40376902       7.52442932      -0.25232211       0.52875350      -0.41537832      -0.30977219       0.57836711      -0.43407816
V       12.22462368       8.98024750       8.78724861       0.51000404      -0.47243637       0.48093477       0.71459484      -0.77221274       0.65631002
Cr      12.23093987       5.94743156      11.84768772      -0.28380703       0.61801368      -0.05872632       0.00207299      -0.02076366       0.13385503
Cr      12.15567875       5.89419270       8.95243645       0.59312678      -0.46767871       0.58871199       0.70781803      -0.30269647      -0.32195449
Cr      13.86958599       7.49271679      10.43817997      -0.94005271      -0.64754841      -0.91856949      -0.82042837       0.06693606      -0.49525064
V       12.21701908       8.88318062      11.94432545       0.14721479       0.16271158       0.20417447       0.12012930       0.04106122      -0.14838554
122
Lattice="15.100251138 0.0 0.0 0.0 9.06015068278 0.0 0.0 0.0 12.0802009104" Properties=species:S:1:pos:R:3:force:R:3:forces:R:3 config_type=di-sia_aa parent_id=99999999 generation=9 step=55 variance=1.0044304132461548 loss=1.0044304132461548 energy=-1067.2253162952902 pbc="T T T"
Cr       1.61677003       1.37347937       4.48604202      -0.36587870       0.14676284       0.26096739       0.05943481       0.00502583       0.02613213
Cr       0.09886140       2.90055895       2.92309928      -0.12586468       0.03433973       0.00158128      -0.03656874      -0.01167620      -0.00285448
V        1.60254443       1.34367466       1.41180348      -0.17162178      -0.48986580      -0.15185871      -0.01166403       0.01488505       0.03024620
Ti       0.14448427       2.95099926       5.93653440       0.14078846      -0.38299034       0.37673514      -0.00391316      -0.03920121       0.01300445
V        1.66486251       4.38524628       4.39893055       0.18610748       0.50910618      -0.20399171       0.04655766      -0.02174509       0.00676432
V        3.05421829       2.93677187       2.95476389       0.70828261      -0.45906649       0.22706643      -0.00890729      -0.00862479       0.04393511
V        3.21170998       2.90856957       5.86249161       0.05657618       0.09440748       0.61230082      -0.63032919       0.23635209       0.36392659
V        1.57162011       4.39611912       1.43163013      -0.54401163      -0.17960151      -0.14616453       0.00829788      -0.01081979       0.08944809
V        6.22795057       2.89824724       5.83690310      -0.36085173       0.22342113      -0.22283418       0.03805482      -0.01116116      -0.05522988
Ti       4.64075470       1.38401389       4.39808130       0.02737985       0.41010477       0.20490755       0.03724703       0.06760836      -0.05156511
V        4.56741619       4.33361435       4.37003613       0.58339221      -0.41310784       0.35790154       0.58859265       0.01071758       0.08917426
V        5.84278297       3.38691807       0.27203587      -0.11384728       0.34992072       0.13414051      -0.02691830      -0.01092482       0.03946164
Cr       4.56677341       1.44272912       1.43513703       0.23210293      -0.18252576       0.81849694       0.02307042       0.07104396      -0.05439220
V        6.16415310       2.93274045       2.94967961       0.45117081       0.29384156      -0.04562392       0.12530550       0.03048014      -0.04751101
V        4.43829727       4.56506729       1.49087691       0.74370913      -0.14887329       0.26904106       0.79878628      -0.22202377       0.50920975
V        1.60743105       1.38168132       7.41735649       0.26131946       0.19149700       0.17343776       0.01010610       0.01936491      -0.02094012
V        1.55128932       1.38672459      10.44405746      -0.38663856       0.05685454       0.11397554       0.02248136       0.00806713      -0.04548320
Cr       1.66721201       4.41683531      10.60333633       0.13727101       0.13583651      -0.88998385      -0.63167918      -0.19797924      -1.67068243
V        0.19050634       2.93219900       8.92929554       0.31980143      -0.24163957      -0.15673077       0.01430385       0.06565309       0.05635393
V        0.11485608       2.88140917      12.00551224      -0.04399461       0.71374445      -0.32658813      -0.01707147      -0.05553792      -0.02594222
V        3.13363338       2.87955904       8.80214787       0.06444441       0.29233852       0.57134766      -0.28269887       0.32999051       0.39579958
Ti       3.02860618       2.92393780      12.04147720      -0.26497230      -0.51969992      -0.18017283       0.00449939      -0.06449841      -0.00535731
V        1.68734944       4.47720051       7.37389994      -0.33373474      -0.86551173      -0.01778362      -0.07351786      -0.75124121       0.52857751
Cr       6.14661455       2.91569757       8.82135582      -0.21533768       0.38259120      -0.20219532      -0.01056719      -0.01007031       0.07185908
V        4.39782953       1.68704307      10.65873241       0.04606738      -0.13662944      -0.72564571      -0.13213578       0.09104365       0.13756242
Cr       5.77032518       0.34180424       9.56715965      -0.49768628      -0.44644425      -0.38881894      -0.01977354       0.00693862      -0.03632182
V        4.61883736       4.48992109      10.40465736       0.84579426      -0.11976945      -0.04409547      -0.06057359      -0.00828531       0.02797570
V        7.07995605       2.06056833      11.17485905       0.20467637      -0.14500744       0.22315949       0.06560071      -0.07172065       0.48313898
Ti       4.59768343       4.36748171       7.36521578      -0.10299785       0.12087042       0.03390648       0.02641924       0.03885644      -0.01190289
Cr       4.71469021       1.33845556       7.21140671      -0.30070613       0.17801101      -0.04141129       0.00434584       0.00945808       0.05438182
Cr       1.61857545       7.42344284       1.36857986      -0.57124921       0.12971358       0.14083290       0.01159503       0.03015618       0.00783205
V        1.65116346       7.44593763       4.37103510      -0.04927341       0.67327227      -0.21320187      -0.02900176      -0.08579718       0.01468186
V        3.12245703       5.88262796       2.94749665       0.20405911      -0.09021369       0.21004877      -0.14763880      -0.02192085       0.06603684
V        0.22099569       8.87504673       2.80382895      -0.18632050       0.38292717       0.85834491      -0.26359639       0.64068139       0.55602401
Cr       0.13163902       5.90300798       5.90781546      -0.14441438       0.10345326       0.09956149       0.02610147       0.04082447       0.05068377
V        0.14598487       5.87771225       2.90065718       0.34691665       0.15178821       0.04977573       0.05477356      -0.03913475       0.00735553
Ti       3.11455441       8.83660126       5.92973185       0.55589946      -0.01661753      -0.54239576       0.05494460       0.04521927      -0.04615161
V        3.12980533       5.90101528       5.90472889       0.32578007      -0.09082330       0.10070624       0.00372367       0.01323749      -0.02596214
Ti       3.10843229       8.92232037       2.98111629      -0.10598743       0.13893450      -0.97835700       0.03542961      -0.03328763      -0.05718422
V        0.08335420       8.90690517       5.93470144       0.47736408      -0.29318210      -0.35958845       0.58625090       0.01146566       0.14524694
Ti       4.63206673       7.45470953       4.42743731      -0.04421467      -0.45298984       0.14297403       0.00545500      -0.01809615      -0.04377462
Cr       6.12836409       5.88777018       5.90364265      -0.29879373      -0.13218156      -0.01322526      -0.00743562      -0.00897200       0.05297875
Ti       6.24349928       5.92864418       2.94189286      -0.26575646      -0.45900853      -0.40911198      -0.01221298      -0.00627817      -0.07758243
Cr       4.59340239       7.41075659       1.38909388       0.32157921       1.01157008      -0.15940702      -0.00118615      -0.01028224       0.00176376
Cr       6.08484507       8.94942760       2.74393153       0.08684101       0.49760766       0.75684886       1.14688563      -0.29841009       1.22071290
V        6.40221453       8.89003468       5.90089798       0.28334670      -0.47145504       0.42007941      -0.56619930      -0.29039103      -1.58772218
Ti       1.62747836       7.42822123       7.46801233       0.22318832       0.07601629       0.24258350       0.01806803       0.00214831      -0.01283001
Cr       1.60532618       7.48317337      10.42674541       0.18149125       0.19376652      -0.03438093      -0.01350789       0.01756466       0.00834879
V        0.14819580       9.02725983      11.96448898       0.38191199       0.68472969       0.59474338       0.00099785      -0.07889885      -0.01340903
Cr       0.08716077       5.88126945      11.97118759       0.32316610       0.07623081       0.35646339      -0.02161214       0.00400732       0.00204607
V        0.12569341       5.88676882       8.89931107       0.16851355       0.36920163       0.02375374       0.01443759      -0.00296368       0.03500710
Cr       3.24326634       8.89779568       8.96792889      -0.72101319      -0.12608125      -0.00867691      -1.26447260       0.39882749      -0.02357664
V        0.14158924       8.96767521       8.94738579      -0.06218527      -0.20815084      -0.08097632       0.03928199      -0.03752755      -0.03508648
Ti       3.20410323       5.87780571       8.89979076       0.33808416       0.28430536      -0.15309352      -0.09066572      -0.00146263       0.04197260
V        3.07771707       8.99225712      11.90454865       0.53043149      -0.43887057       0.01169525       0.06329364      -0.02422916      -0.00792010
Cr       3.12905669       5.93549824      11.94567680      -0.37731737      -0.18181957       0.00480132      -0.00891484      -0.06024304       0.03640228
Ti       6.26216173       8.87223721      12.06894207      -0.22597368      -0.38196772       0.23595474      -0.00247101       0.03840346       0.01910087
V        6.83040047       8.13517475       8.13218784      -0.47738432       0.42370668       0.10106515       0.15899891      -0.11950137      -0.11214670
V        6.33679628       5.86475229       8.98105526      -0.42451744      -0.54657170      -0.26559470      -1.59557855      -0.58306086      -0.80274981
Ti       4.73262548       7.36217546      10.48570156       0.14362377       0.08193017      -0.40977597       0.06238152      -0.07251044      -0.05237174
V        4.51655245       7.37505960       7.43664026       0.08852217      -0.14537783       0.23978172       0.05184148      -0.00282760       0.01123869
V        6.13823700       5.96891499      11.98867035      -0.08912998      -0.06012612      -0.02735899       0.00186001      -0.00279878       0.00981946
Cr      10.72608566       1.32448399       1.25537002       0.60077273       0.21397182       0.47973564      -0.04782973      -0.01053835       0.02077767
V        7.66571951       1.37179780       4.34906006       0.01397884      -0.10314918      -0.28563602      -0.02555715       0.02052978      -0.00892124
Ti       9.20252514       2.72597623       2.87753439      -0.20333036       0.07187285      -0.62561429      -0.30814779       1.17511225      -0.28982615
Cr       9.25270653       2.79968309       5.88001823       0.60718731       0.47678775       0.25825239      -0.00761370       0.04103775      -0.02699055
V        7.69895649       1.45990479       1.46852541      -0.20627133      -0.38632234       0.07867734       0.00663966       0.01407116      -0.03647134
V       10.74813747       4.28183937       4.24301386      -0.13751938       0.00984185       0.24014408       0.07334475       0.06593357      -0.01995779
Cr      10.80798435       1.34107852       4.33091879      -0.48956981      -0.76480001      -0.55770738      -0.00155593       0.06526974       0.00225269
V       10.64160252       4.60235596       1.26519918       0.16002877      -0.56169914       0.52305544       0.69530857      -1.65382433       0.64240849
Ti       7.67104864       4.29528856       4.26718760      -0.15720929      -0.02716086       0.15456123      -0.06126620      -0.00248995       0.00723364
Ti       7.88692474       4.45911169       1.33603156      -0.55542950      -0.46068566       0.26292232      -1.16843808      -0.74787903       0.58779538
Cr      12.20736313       2.87997627       2.75836802      -0.28499339       0.45366599       0.15812236      -0.05421773       0.21589856       0.40888795
Cr      13.72241306       4.41949701       1.33270371       0.57068625      -0.87971677       0.10238262      -0.00793880       0.04800703       0.00266426
Ti      13.76016426       1.34804034       1.33093989      -0.09987881      -0.28539337       0.10084127      -0.02935998      -0.00159597      -0.04478002
V       12.18818569       2.72420096       5.78359652       0.40802588       0.58628757       0.19605796       0.46868420       0.99961185       0.45678958
Ti      13.72437954       4.33415127       4.34868956      -0.49697074      -0.60335110      -0.25066359       0.02002944       0.03722178      -0.00951260
V       13.77964687       1.36024380       4.42682171       0.19050144      -0.65817263       0.02238316       0.03462416       0.05127114      -0.05526369
V       10.82284451       1.33608937       7.35410500      -0.67754629      -0.10541594      -0.41258002      -0.02087156      -0.06684311       0.01768452
Cr       9.08666134       2.89223909       8.94787407       0.65719973      -0.27156425       0.14251064       0.81747460      -0.49457783      -0.56091785
V        7.81575346       1.29825366       7.27221203      -0.50959902      -0.19928314       0.06368787      -0.58402348       0.36336690       0.31635892
V        7.65796185       4.26115608       7.34566069      -0.36268432      -0.22514473       0.56875242       0.01203263      -0.01468582       0.01680030
Ti       8.31426716       0.69409418       9.93992901      -0.23189620       0.61760264      -0.30347686      -0.02528310       0.08306334       0.02978931
V        9.28983784       2.87682962      11.94846153      -0.10284714       0.26637580       0.22787990       0.10148885      -0.03327578       0.06044365
Cr      10.87212944       1.34376943      10.39237976      -0.05040405      -0.23883826       0.30137553      -0.21783462      -0.16850388       0.34128946
V       10.84463120       4.23015594       7.43592453      -0.48397329       0.27257317      -0.03256060      -0.03588691       0.02521618      -0.01408378
Cr      10.71291542       4.30539083      10.44472122       0.18844055       0.05568121      -0.63059327       0.02764545       0.00904675       0.00974093
Cr       7.58343840       4.43116665      10.50227261      -0.02267244       0.88240902      -0.46483258       0.33883056       0.22982571       0.40008861
Cr      13.78727055       1.39568543       7.45889997      -0.35579214       0.25190929      -0.13503623       0.01454521       0.01281760      -0.05415877
V       12.20756054       2.89039779       9.04827785       0.21762209       0.32331312      -0.81482883       0.37168914       0.01097398      -1.23901892
V       13.72546577       4.31868172       7.44523335       0.07258204      -0.07280410       0.09094233       0.00948146      -0.01893561      -0.00900390
Ti      13.69282722       1.41569471      10.51746559       0.05992922      -0.16685900      -0.03411302       0.45068574      -0.09572214      -0.71327782
V       12.22792625       2.94821477      11.95260811      -0.61321517      -0.32152958      -0.65962762      -0.00611034       0.03939249      -0.04294277
V       13.75470352       4.37559891      10.42238903      -0.59604501      -0.16360521       0.25432363       0.02060136       0.00862870       0.00978352
Cr       9.45639420       5.66392088       5.68454456      -0.29799372      -0.49263579      -0.19565171       0.10136949      -0.04257448      -0.02325812
V        9.22954273       5.92839813       2.85580039       0.09238354      -0.12181509      -0.34320362       0.03263490       0.01551739      -0.05788463
Cr       9.26397705       8.89093208       2.90490389       0.26222051      -0.07077882      -0.22257083      -0.57028818      -0.02020560      -0.45715341
V        7.80225992       7.32506037       4.36180735      -0.56914194       0.59930740      -0.80182474      -0.50762463       0.12755892      -0.64764297
Cr       9.30910587       8.83993053       5.80406332       0.07795040       0.20374581       0.47107962       0.01258486      -0.03256774      -0.03393171
Ti      11.01844215       7.52825832       4.25571966      -0.43826408      -0.76782883      -0.76169399      -1.53287482      -1.73698330       0.17781043
V       10.76648426       7.41009092       1.30136192      -0.27787228      -0.04961746       0.30894648      -0.01635633       0.04130286       0.09496146
V        7.70463896       7.36641550       1.39163315       0.33573548       0.17522303       0.29811776      -0.02427835      -0.02138649       0.00145494
Ti      12.34980011       5.87737560       5.56158161       0.17061196       0.22140618       0.97428221      -0.20379627      -0.37636194       1.75329590
Ti      12.21001339       5.89518833       2.79540753       0.09103692       0.76714046       0.37649079      -0.04823390       0.00957334      -0.00915409
Cr      13.73745823       7.60970306       4.32051086       0.51607196      -0.72008589      -0.17119762       1.36422873      -1.61435485      -0.02627678
Cr      12.37144279       8.82188988       2.84870386      -0.50146688       0.95907444       0.00685448      -0.44651544       1.43344617      -1.08802354
Ti      12.25519943       8.82988548       5.83351231       0.29696050       0.29683461       0.25634358       0.50160944       0.84971899       0.84652281
Cr      13.80563545       7.42198515       1.31633401      -0.63503855       0.12187802      -0.79159094      -0.00057179       0.03766392       0.02147144
V        8.16411781       6.88554573       7.03135967       0.12257305      -0.22751513      -0.59244185       0.03271095       0.08382750       0.02835755
V        9.54995632       8.53280735       8.55146980       0.46666732       0.09671333      -0.16623779       0.02538836       0.12425199       0.14732698
Ti       9.09677029       5.58739662       8.94291210       0.78035814       0.02572095       0.19886972       1.30220962       1.14686453      -0.90582842
V       10.76363564       7.41695166      10.39472008      -0.20677149      -0.61166864       0.24192206      -0.02070301       0.04591044       0.02531992
Cr       7.70288563       7.29625607      10.46334457       0.20765771       0.41897251      -0.62458844      -0.03866860       0.00502976      -0.01147800
V       10.93835258       7.26107454       7.25803709      -0.20456351       0.54808838       0.16660027      -0.01392166      -0.00494858       0.02369162
Cr       9.28955650       5.92324877      11.91173077       0.24553545      -0.30670461       0.44950805       0.01035926       0.14869645      -0.08792239
V        9.14286137       8.70083618      12.05596733       0.46415044       0.63930109       0.45156516       0.51840150       1.10057032       0.25383052
V       13.78719521       7.43021250       7.52951670      -0.25232211       0.52875350      -0.41537832      -0.13043256       0.42722511      -0.47236139
V       12.23289108       8.97969818       8.77638531       0.51000404      -0.47243637       0.48093477       0.58518630      -0.75542343       0.76806855
Cr      12.23177433       5.94350004      11.84633541      -0.28380703       0.61801368      -0.05872632      -0.00255694      -0.01254434       0.11122341
Cr      12.16041851       5.89222765       8.95828152       0.59312678      -0.46767871       0.58871199       0.67874765      -0.26479861      -0.35815233
Cr      13.86811829       7.48907852      10.43910694      -0.94005271      -0.64754841      -0.91856949      -0.80689859       0.08964227      -0.49756753
V       12.21953106       8.87985802      11.94236660       0.14721479       0.16271158       0.20417447       0.09850805       0.03400708      -0.10991527
122
Lattice="15.100251138 0.0 0.0 0.0 9.06015068278 0.0 0.0 0.0 12.0802009104" Properties=species:S:1:pos:R:3:force:R:3:forces:R:3 config_type=di-sia_aa parent_id=99999999 generation=9 step=66 variance=1.035970687866211 loss=1.035970687866211 energy=-1067.2365162874332 pbc="T T T"
Cr       1.61394250       1.36671650       4.49358082      -0.36587870       0.14676284       0.26096739       0.09573710      -0.00221668      -0.04388157
Cr       0.09375236       2.89714479       2.92407775      -0.12586468       0.03433973       0.00158128      -0.00784126       0.02886145      -0.00399792
V        1.59908938       1.34698451       1.40569603      -0.17162178      -0.48986580      -0.15185871       0.00865460      -0.00448951       0.08146571
Ti       0.14376523       2.95258904       5.93635082       0.14078846      -0.38299034       0.37673514      -0.00596476      -0.03448353       0.01480012
V        1.66271842       4.37165880       4.40977955       0.18610748       0.50910618      -0.20399171       0.06140434       0.02253262      -0.04828365
V        3.05859613       2.93010116       2.96326160       0.70828261      -0.45906649       0.22706643      -0.02814768       0.01762779      -0.00101229
V        3.19764876       2.91331315       5.87239552       0.05657618       0.09440748       0.61230082      -0.52534294       0.20142703       0.28465486
V        1.58032131       4.40068865       1.43814814      -0.54401163      -0.17960151      -0.14616453      -0.04457268      -0.04575362       0.06510042
V        6.23880720       2.89396596       5.82107162      -0.36085173       0.22342113      -0.22283418      -0.03327180       0.04360943       0.06746629
Ti       4.64644623       1.38725173       4.39798641       0.02737985       0.41010477       0.20490755      -0.00430501       0.04363041      -0.03328056
V        4.58211946       4.32512236       4.36419439       0.58339221      -0.41310784       0.35790154       0.47719711       0.06300645       0.11584060
V        5.83805037       3.37656927       0.28030887      -0.11384728       0.34992072       0.13414051      -0.02552460       0.15575135      -0.00185499
Cr       4.56801558       1.44064879       1.43704152       0.23210293      -0.18252576       0.81849694      -0.00804563       0.05389366      -0.04280947
V        6.19753408       2.94675279       2.94816685       0.45117081       0.29384156      -0.04562392      -0.07481351      -0.02724842      -0.04404742
V        4.44264364       4.56487322       1.48325288       0.74370913      -0.14887329       0.26904106       0.74746835      -0.20060813       0.56927830
V        1.61025572       1.38510799       7.41381931       0.26131946       0.19149700       0.17343776       0.00971106      -0.01694744       0.03312387
V        1.55393338       1.38722205      10.44014549      -0.38663856       0.05685454       0.11397554      -0.00694806       0.01130420      -0.01389093
Cr       1.67693043       4.42277765      10.59974861       0.13727101       0.13583651      -0.88998385      -0.69251442      -0.26161158      -1.64161110
V        0.18746695       2.93201852       8.93590355       0.31980143      -0.24163957      -0.15673077       0.02615678       0.07358426       0.03119216
V        0.11812121       2.88440943      12.00165367      -0.04399461       0.71374445      -0.32658813      -0.03766566      -0.05911434       0.00376538
V        3.13838625       2.86607909       8.80384254       0.06444441       0.29233852       0.57134766      -0.30766317       0.38291940       0.39107630
Ti       3.03382587       2.92342949      12.03664970      -0.26497230      -0.51969992      -0.18017283      -0.02106214      -0.07798472       0.02446411
V        1.69180024       4.46605396       7.36970282      -0.33373474      -0.86551173      -0.01778362      -0.12033849      -0.68677711       0.56764376
Cr       6.13436604       2.92722201       8.83519173      -0.21533768       0.38259120      -0.20219532       0.07726879      -0.05939320       0.15721330
V        4.40300417       1.68752050      10.66389561       0.04606738      -0.13662944      -0.72564571      -0.12877516       0.10336699       0.18174565
Cr       5.76577234       0.34899086       9.55860806      -0.49768628      -0.44644425      -0.38881894      -0.00245336       0.01098704      -0.02070883
V        4.61386013       4.49218607      10.41338348       0.84579426      -0.11976945      -0.04409547      -0.04564186       0.00243364      -0.00266906
V        7.09162378       2.04502678      11.23359203       0.20467637      -0.14500744       0.22315949       0.05296538      -0.06551640      -0.01505024
Ti       4.58630514       4.39092779       7.37680483      -0.10299785       0.12087042       0.03390648       0.09207406      -0.11395919      -0.10503193
Cr       4.70515823       1.32955694       7.20322371      -0.30070613       0.17801101      -0.04141129       0.01922809       0.01569363       0.07781975
Cr       1.62113678       7.43514967       1.36803603      -0.57124921       0.12971358       0.14083290      -0.03439313      -0.01363362       0.01745905
V        1.65151930       7.44380903       4.37199259      -0.04927341       0.67327227      -0.21320187      -0.02920106      -0.08253612       0.01050671
V        3.11016130       5.87791014       2.94738007       0.20405911      -0.09021369       0.21004877      -0.04500150      -0.03678592       0.03612938
V        0.20804115       8.87108994       2.81251001      -0.18632050       0.38292717       0.85834491      -0.17574672       0.68209636       0.49360153
Cr       0.12958275       5.90875912       5.91926527      -0.14441438       0.10345326       0.09956149       0.00882369       0.02987381      -0.00712010
V        0.14952105       5.88129807       2.90349340       0.34691665       0.15178821       0.04977573       0.02229950      -0.04756431       0.00404698
Ti       3.11960053       8.81860447       5.91994858       0.55589946      -0.01661753      -0.54239576       0.04051609       0.08366057      -0.02335679
V        3.12788916       5.89816761       5.89759064       0.32578007      -0.09082330       0.10070624       0.02726971       0.00659293       0.01239031
Ti       3.11984706       8.91879177       2.96415496      -0.10598743       0.13893450      -0.97835700      -0.02838064      -0.00460511       0.02938866
V        0.10185691       8.90257359       5.94558859       0.47736408      -0.29318210      -0.35958845       0.44784826       0.02450518       0.08538187
Ti       4.63308477       7.44129896       4.41568279      -0.04421467      -0.45298984       0.14297403       0.00670557       0.02954751      -0.01156641
Cr       6.12496853       5.88888073       5.90884590      -0.29879373      -0.13218156      -0.01322526       0.00912103      -0.01241234       0.01697711
Ti       6.24451399       5.93244410       2.93129969      -0.26575646      -0.45900853      -0.40911198      -0.00737020      -0.00258008      -0.02815680
Cr       4.59412336       7.40455055       1.36882436       0.32157921       1.01157008      -0.15940702       0.02049622       0.02277575       0.07601206
Cr       6.08515835       8.96135902       2.75506973       0.08684101       0.49760766       0.75684886       1.11678839      -0.39950523       1.12945271
V        6.41077662       8.88170624       5.90558815       0.28334670      -0.47145504       0.42007941      -0.62301981      -0.25762975      -1.66231608
Ti       1.62907171       7.42759943       7.47092772       0.22318832       0.07601629       0.24258350       0.01615570       0.01028697      -0.01159300
Cr       1.59696841       7.47913456      10.42718124       0.18149125       0.19376652      -0.03438093      -0.01133841      -0.01122744      -0.00444364
V        0.15473425       9.03606701      11.95826340       0.38191199       0.68472969       0.59474338      -0.06206491      -0.14435039       0.02131513
Cr       0.09382624       5.88918066      11.97903347       0.32316610       0.07623081       0.35646339      -0.05028450      -0.02524709      -0.01152347
V        0.12501922       5.88679695       8.89815521       0.16851355       0.36920163       0.02375374       0.01130368       0.00139844       0.03303631
Cr       3.23530269       8.88067532       9.00443077      -0.72101319      -0.12608125      -0.00867691      -1.20500624       0.46218392      -0.22215185
V        0.13977474       8.97577667       8.94175911      -0.06218527      -0.20815084      -0.08097632       0.02163736      -0.07920644      -0.01233095
Ti       3.20672774       5.87371969       8.89067650       0.33808416       0.28430536      -0.15309352      -0.12826008       0.02688563       0.09189576
V        3.08293939       8.97628403      11.88982582       0.53043149      -0.43887057       0.01169525       0.07188069       0.08268081       0.04603942
Cr       3.12755227       5.93617249      11.94137669      -0.37731737      -0.18181957       0.00480132      -0.00783078      -0.05512429       0.06147177
Ti       6.24902248       8.87985611      12.06444740      -0.22597368      -0.38196772       0.23595474       0.03268669      -0.05334775       0.03640191
V        6.83739090       8.13399887       8.13350296      -0.47738432       0.42370668       0.10106515       0.12308645      -0.10868895      -0.05783434
V        6.32999229       5.86100721       8.96121693      -0.42451744      -0.54657170      -0.26559470      -1.49646997      -0.60291004      -0.68183893
Ti       4.75373936       7.33866119      10.47076321       0.14362377       0.08193017      -0.40977597       0.02962357       0.00780471      -0.03779281
V        4.52102613       7.37867975       7.44542265       0.08852217      -0.14537783       0.23978172       0.01404947      -0.01088365      -0.01107932
V        6.14299250       5.96196270      11.99162579      -0.08912998      -0.06012612      -0.02735899      -0.00662237       0.02660514      -0.02222405
Cr      10.72857094       1.32448697       1.26622987       0.60077273       0.21397182       0.47973564      -0.01040153      -0.00432681      -0.03854425
V        7.66492319       1.37396419       4.34515238       0.01397884      -0.10314918      -0.28563602       0.00057971      -0.01576976       0.02023758
Ti       9.17939281       2.69565558       2.85421586      -0.20333036       0.07187285      -0.62561429      -0.12213160       1.41465735      -0.10094421
Cr       9.25729752       2.79704714       5.87733412       0.60718731       0.47678775       0.25825239      -0.03546086       0.04638798      -0.03132853
V        7.70780373       1.45682204       1.46142304      -0.20627133      -0.38632234       0.07867734      -0.02834564      -0.03738944       0.03653371
V       10.74595356       4.27083015       4.23314953      -0.13751938       0.00984185       0.24014408       0.07206010       0.14374170       0.04747473
Cr      10.80492210       1.33422828       4.32576656      -0.48956981      -0.76480001      -0.55770738      -0.00837269       0.08299171       0.00927216
V       10.63167953       4.60924911       1.25983346       0.16002877      -0.56169914       0.52305544       0.76549619      -1.72810960       0.70633048
Ti       7.67063713       4.30205679       4.26578712      -0.15720929      -0.02716086       0.15456123      -0.04046189      -0.03204523       0.00628465
Ti       7.88928699       4.46555233       1.33467579      -0.55542950      -0.46068566       0.26292232      -1.20271623      -0.77926517       0.56468022
Cr      12.19952679       2.88492680       2.79176998      -0.28499339       0.45366599       0.15812236      -0.03226397       0.19171104       0.19677174
Cr      13.72013569       4.42218494       1.33210647       0.57068625      -0.87971677       0.10238262       0.01109004       0.02968687       0.02917125
Ti      13.75070095       1.35288739       1.33644783      -0.09987881      -0.28539337       0.10084127       0.01816973       0.00293808      -0.04252207
V       12.19322872       2.71707273       5.77742720       0.40802588       0.58628757       0.19605796       0.45184192       1.03247106       0.48837528
Ti      13.72222614       4.33937168       4.34785652      -0.49697074      -0.60335110      -0.25066359       0.05296623       0.02286681       0.00412717
V       13.78111172       1.35567749       4.42153358       0.19050144      -0.65817263       0.02238316       0.02592581       0.06988718      -0.02821898
V       10.82359409       1.32984924       7.35397339      -0.67754629      -0.10541594      -0.41258002      -0.00216154      -0.04437436       0.01456184
Cr       9.08309650       2.88381219       8.94458961       0.65719973      -0.27156425       0.14251064       0.83542478      -0.45776901      -0.54971147
V        7.80792379       1.29847169       7.26149797      -0.50959902      -0.19928314       0.06368787      -0.53711373       0.37778085       0.38637137
V        7.65412569       4.25711346       7.34667921      -0.36268432      -0.22514473       0.56875242       0.02295469       0.02065615       0.00164461
Ti       8.30211449       0.70314938       9.93882656      -0.23189620       0.61760264      -0.30347686      -0.01819305       0.01318832       0.10016760
V        9.28945255       2.88300586      11.95211792      -0.10284714       0.26637580       0.22787990       0.17785566      -0.05656246       0.08944055
Cr      10.84892654       1.32260251      10.43839741      -0.05040405      -0.23883826       0.30137553      -0.02216022      -0.00410618       0.01172042
V       10.85196495       4.23037815       7.42978287      -0.48397329       0.27257317      -0.03256060      -0.05461177       0.00862283       0.01727303
Cr      10.72179222       4.29421043      10.44146252       0.18844055       0.05568121      -0.63059327       0.03106799       0.03297782      -0.00018407
Cr       7.60853148       4.45050478      10.51537800      -0.02267244       0.88240902      -0.46483258       0.11848314      -0.03173441       0.36168775
Cr      13.78920460       1.39890993       7.44774294      -0.35579214       0.25190929      -0.13503623       0.01104428      -0.01459065       0.00077386
V       12.21366310       2.89931941       9.01905823       0.21762209       0.32331312      -0.81482883       0.26861280      -0.13835141      -0.97471118
V       13.73112202       4.32901001       7.45141554       0.07258204      -0.07280410       0.09094233      -0.00706576      -0.05671335      -0.02845947
Ti      13.68164349       1.39463341      10.52395439       0.05992922      -0.16685900      -0.03411302       0.49612892       0.09020271      -0.78991580
V       12.22785187       2.94507432      11.95978355      -0.61321517      -0.32152958      -0.65962762      -0.00451273       0.02776470      -0.06322671
V       13.75713348       4.37947416      10.43164062      -0.59604501      -0.16360521       0.25432363       0.02078430      -0.04061381      -0.06102138
Cr       9.45698929       5.65959072       5.68172550      -0.29799372      -0.49263579      -0.19565171       0.13125303      -0.03494964      -0.02360913
V        9.22800922       5.93549538       2.85481644       0.09238354      -0.12181509      -0.34320362       0.02159360       0.00592056      -0.04743483
Cr       9.25861359       8.90125084       2.88552690       0.26222051      -0.07077882      -0.22257083      -0.52583468      -0.12139022      -0.29411015
V        7.80818701       7.33070898       4.36013794      -0.56914194       0.59930740      -0.80182474      -0.53912222       0.10596808      -0.66385663
Cr       9.31702995       8.84095192       5.79969883       0.07795040       0.20374581       0.47107962      -0.01922268      -0.03506241      -0.02529123
Ti      11.03098774       7.53100061       4.24629641      -0.43826408      -0.76782883      -0.76169399      -1.73910999      -1.78542972       0.18430230
V       10.76607609       7.41098881       1.30482697      -0.27787228      -0.04961746       0.30894648      -0.00530939       0.01708569       0.07372542
V        7.70181704       7.37948084       1.39188325       0.33573548       0.17522303       0.29811776      -0.03322875      -0.06682277       0.00627520
Ti      12.35260963       5.88580751       5.55828571       0.17061196       0.22140618       0.97428221      -0.23277095      -0.45210838       1.77336407
Ti      12.20403576       5.89456987       2.78577924       0.09103692       0.76714046       0.37649079      -0.03554861      -0.00642565       0.03105667
Cr      13.71495533       7.61360216       4.32029724       0.51607196      -0.72008589      -0.17119762       1.60444868      -1.66695428      -0.02385463
Cr      12.36443424       8.82185555       2.83796549      -0.50146688       0.95907444       0.00685448      -0.41669297       1.49273515      -1.07541835
Ti      12.24917221       8.82234764       5.82788610       0.29696050       0.29683461       0.25634358       0.53084964       0.97421372       0.92531323
Cr      13.79902649       7.42915821       1.31792355      -0.63503855       0.12187802      -0.79159094       0.07096437       0.00084417      -0.00348362
V        8.16432381       6.89346981       7.02533531       0.12257305      -0.22751513      -0.59244185       0.11083223       0.01364957       0.05424935
V        9.55153561       8.53752804       8.55945492       0.46666732       0.09671333      -0.16623779      -0.00313631       0.11225375       0.14413337
Ti       9.10219383       5.58167982       8.95108986       0.78035814       0.02572095       0.19886972       1.27076459       1.21199226      -0.99563277
V       10.76244926       7.40536642      10.39914036      -0.20677149      -0.61166864       0.24192206      -0.00552816       0.06673527      -0.01042236
Cr       7.69671249       7.29840326      10.46682453       0.20765771       0.41897251      -0.62458844      -0.00032014       0.05491586      -0.04607683
V       10.94137859       7.26255465       7.25287962      -0.20456351       0.54808838       0.16660027      -0.07014665      -0.01167654       0.07293942
Cr       9.28935528       5.93091249      11.91145992       0.24553545      -0.30670461       0.44950805       0.02429601       0.13152161      -0.09059342
V        9.15107346       8.68886089      12.07331753       0.46415044       0.63930109       0.45156516       0.43436164       1.19003034       0.08320829
V       13.76798725       7.44918299       7.52130842      -0.25232211       0.52875350      -0.41537832       0.01918129       0.32635689      -0.43218848
V       12.23676586       8.97017002       8.77796173       0.51000404      -0.47243637       0.48093477       0.50629729      -0.68625069       0.78008240
Cr      12.22879410       5.93777466      11.85030270      -0.28380703       0.61801368      -0.05872632       0.03556950      -0.00192947       0.07196325
Cr      12.16065216       5.89505482       8.95593929       0.59312678      -0.46767871       0.58871199       0.68486828      -0.29540822      -0.35250252
Cr      13.86336899       7.47895861      10.43447113      -0.94005271      -0.64754841      -0.91856949      -0.75917518       0.14129701      -0.46456546
V       12.22845745       8.87359333      11.94434738       0.14721479       0.16271158       0.20417447       0.02907896       0.02889162      -0.08038339
122
Lattice="15.100251138 0.0 0.0 0.0 9.06015068278 0.0 0.0 0.0 12.0802009104" Properties=species:S:1:pos:R:3:force:R:3:forces:R:3 config_type=di-sia_aa parent_id=99999999 generation=9 step=77 variance=1.0738664865493774 loss=1.0738664865493774 energy=-1067.0795085769305 pbc="T T T"
Cr       1.61687684       1.36759758       4.48268223      -0.36587870       0.14676284       0.26096739       0.09221809       0.00485066      -0.00314966
Cr       0.08339643       2.90186357       2.91998386      -0.12586468       0.03433973       0.00158128       0.03992634       0.00193553       0.02881816
V        1.59107757       1.34792614       1.41487026      -0.17162178      -0.48986580      -0.15185871       0.03291986      -0.01500800       0.02050287
Ti       0.14382702       2.94887900       5.93583775       0.14078846      -0.38299034       0.37673514       0.00742381      -0.02000881       0.02072722
V        1.66374028       4.36679888       4.41012335       0.18610748       0.50910618      -0.20399171       0.02970479       0.07147246      -0.03034619
V        3.05600691       2.93516588       2.96287441       0.70828261      -0.45906649       0.22706643      -0.03767698      -0.00709731       0.03312697
V        3.18099761       2.92782640       5.88861370       0.05657618       0.09440748       0.61230082      -0.44562423       0.10503574       0.17611842
V        1.57432866       4.40527582       1.43961799      -0.54401163      -0.17960151      -0.14616453      -0.02430432      -0.06891353       0.06992494
V        6.23091125       2.90414786       5.83612061      -0.36085173       0.22342113      -0.22283418       0.04255955      -0.01607779      -0.04807869
Ti       4.64567232       1.39862943       4.38922501       0.02737985       0.41010477       0.20490755      -0.00636267      -0.04278375       0.03850799
V        4.59198523       4.30659294       4.37604952       0.58339221      -0.41310784       0.35790154       0.40943152       0.19024381       0.05356936
V        5.83848953       3.37046838       0.27731746      -0.11384728       0.34992072       0.13414051      -0.03935500       0.21678057       0.02876486
Cr       4.55965757       1.43874955       1.44591463       0.23210293      -0.18252576       0.81849694       0.02560998       0.05120822      -0.07177742
V        6.18940735       2.94068241       2.94298506       0.45117081       0.29384156      -0.04562392      -0.02790593       0.00383891      -0.01969743
V        4.43541145       4.56381989       1.48793411       0.74370913      -0.14887329       0.26904106       0.82460320      -0.22623873       0.54085755
V        1.61299443       1.38308048       7.42437029       0.26131946       0.19149700       0.17343776       0.01218087       0.03213146      -0.00226809
V        1.55055201       1.38522112      10.45143127      -0.38663856       0.05685454       0.11397554       0.01205985       0.01905808      -0.05303477
Cr       1.70067310       4.43638563      10.60365868       0.13727101       0.13583651      -0.88998385      -0.85823822      -0.35395536      -1.63907623
V        0.18857336       2.93368173       8.94282532       0.31980143      -0.24163957      -0.15673077       0.01631058       0.09248620       0.02258436
V        0.11044547       2.86240888      11.99875355      -0.04399461       0.71374445      -0.32658813       0.01929496       0.13641053       0.03702111
V        3.12749577       2.87820029       8.79717636       0.06444441       0.29233852       0.57134766      -0.22985089       0.32275027       0.44158900
Ti       3.02635741       2.92115641      12.04832935      -0.26497230      -0.51969992      -0.18017283      -0.00226692      -0.05889964       0.00257072
V        1.67371285       4.46700239       7.37128496      -0.33373474      -0.86551173      -0.01778362      -0.03879115      -0.67254400       0.59438097
Cr       6.16388702       2.93437958       8.86507511      -0.21533768       0.38259120      -0.20219532      -0.12933779      -0.08441216       0.05328645
V        4.39784670       1.69740653      10.67617035       0.04606738      -0.13662944      -0.72564571      -0.08782721       0.05175160       0.10758235
Cr       5.75997448       0.35709193       9.54664707      -0.49768628      -0.44644425      -0.38881894      -0.01910011      -0.01671768      -0.01649847
V        4.60997581       4.50233507      10.40976620       0.84579426      -0.11976945      -0.04409547      -0.02530762      -0.00706712       0.01927012
V        7.09398556       2.03159738      11.24563599       0.20467637      -0.14500744       0.22315949       0.06563395      -0.05951795      -0.00286525
Ti       4.59919739       4.37684917       7.35938787      -0.10299785       0.12087042       0.03390648      -0.03093569      -0.00166118       0.05906608
Cr       4.69840384       1.33527362       7.19608259      -0.30070613       0.17801101      -0.04141129       0.04787816      -0.00481411       0.13039289
Cr       1.61886585       7.43431282       1.36941206      -0.57124921       0.12971358       0.14083290      -0.00730519      -0.00918724       0.00745954
V        1.65509939       7.44010210       4.36507559      -0.04927341       0.67327227      -0.21320187      -0.02196028      -0.06492899       0.03405089
V        3.11644840       5.88187981       2.95228553       0.20405911      -0.09021369       0.21004877      -0.05843428      -0.06197403       0.04301130
V        0.19445875       8.87711716       2.79178977      -0.18632050       0.38292717       0.85834491      -0.13176510       0.65358269       0.65456414
Cr       0.12533334       5.91479635       5.92453957      -0.14441438       0.10345326       0.09956149      -0.00398820       0.02144263      -0.06315640
V        0.14627790       5.88774633       2.90519404       0.34691665       0.15178821       0.04977573       0.03682511      -0.08069499       0.00561888
Ti       3.12232041       8.80259895       5.91319513       0.55589946      -0.01661753      -0.54239576       0.04512605       0.15263550      -0.01356784
V        3.13002586       5.89116764       5.89827204       0.32578007      -0.09082330       0.10070624       0.01099614       0.02444147       0.00046718
Ti       3.11388731       8.91137600       2.96745992      -0.10598743       0.13893450      -0.97835700       0.00004196       0.01715054       0.01963496
V        0.15408422       8.90291119       5.94899130       0.47736408      -0.29318210      -0.35958845       0.09447883       0.04044886       0.02292524
Ti       4.64432907       7.44541836       4.41632605      -0.04421467      -0.45298984       0.14297403      -0.02611611      -0.01270954      -0.02371033
Cr       6.12486315       5.89249992       5.90439224      -0.29879373      -0.13218156      -0.01322526       0.00834172      -0.02263042       0.02079559
Ti       6.24216938       5.93105888       2.92934942      -0.26575646      -0.45900853      -0.40911198      -0.00044279      -0.01039129      -0.00665983
Cr       4.59519291       7.40588999       1.36817348       0.32157921       1.01157008      -0.15940702       0.03183603       0.02238163       0.07142892
Cr       6.08841276       8.95881844       2.75597167       0.08684101       0.49760766       0.75684886       1.10557914      -0.37920332       1.12318707
V        6.41195250       8.86143875       5.90222359       0.28334670      -0.47145504       0.42007941      -0.64973378      -0.13554744      -1.66803217
Ti       1.62303114       7.43258810       7.47347450       0.22318832       0.07601629       0.24258350       0.04131457      -0.01155465      -0.01584148
Cr       1.58894980       7.47365379      10.42865181       0.18149125       0.19376652      -0.03438093       0.01233762       0.02512174       0.00009577
V        0.15329881       9.03245926      11.96481419       0.38191199       0.68472969       0.59474338      -0.05982719      -0.12781015      -0.03886584
Cr       0.09980036       5.88916016      11.97292042       0.32316610       0.07623081       0.35646339      -0.06840237      -0.03829738       0.00986913
V        0.11677174       5.89309788       8.88936901       0.16851355       0.36920163       0.02375374       0.00171604      -0.00168929       0.04146392
Cr       3.21715641       8.88459015       9.00656509      -0.72101319      -0.12608125      -0.00867691      -1.08362842       0.46942097      -0.20270056
V        0.13693193       8.98112869       8.94316769      -0.06218527      -0.20815084      -0.08097632       0.02326481      -0.07129373      -0.01789401
Ti       3.18654680       5.87811232       8.89160633       0.33808416       0.28430536      -0.15309352       0.00897115      -0.00477241       0.00828466
V        3.08262110       8.97783661      11.89024925       0.53043149      -0.43887057       0.01169525       0.07864044       0.07212537       0.03936327
Cr       3.13652968       5.94253826      11.94977093      -0.37731737      -0.18181957       0.00480132      -0.01626388      -0.04612594       0.04074965
Ti       6.25384188       8.87060547      12.06256771      -0.22597368      -0.38196772       0.23595474      -0.01738444      -0.00425630      -0.00208536
V        6.84894943       8.12496758       8.12547493      -0.47738432       0.42370668       0.10106515       0.04263245      -0.03167659       0.02101714
V        6.30420780       5.88042688       8.95610523      -0.42451744      -0.54657170      -0.26559470      -1.28148246      -0.78194684      -0.57473731
Ti       4.77060175       7.33900070      10.45927238       0.14362377       0.08193017      -0.40977597      -0.06407800       0.02061762      -0.01014484
V        4.50967121       7.37621880       7.44348097       0.08852217      -0.14537783       0.23978172       0.06397083       0.00042665       0.00962802
V        6.14477396       5.96394157      11.99274254      -0.08912998      -0.06012612      -0.02735899      -0.02747578       0.04275891      -0.02288362
Cr      10.74535847       1.32674706       1.26173365       0.60077273       0.21397182       0.47973564      -0.07909973      -0.02288799       0.01335015
V        7.66595507       1.37567997       4.34025860       0.01397884      -0.10314918      -0.28563602      -0.01906644      -0.02277507       0.03919650
Ti       9.18777084       2.68263125       2.83203411      -0.20333036       0.07187285      -0.62561429      -0.20625815       1.49143016       0.03850810
Cr       9.25236893       2.79884696       5.87497950       0.60718731       0.47678775       0.25825239      -0.01156945       0.02953469      -0.03931130
V        7.69693375       1.44667590       1.46788669      -0.20627133      -0.38632234       0.07867734       0.01168345       0.02108782      -0.03009160
V       10.74296951       4.27543020       4.24136496      -0.13751938       0.00984185       0.24014408       0.06114490       0.10706860       0.00327618
Cr      10.78939152       1.32718885       4.32691765      -0.48956981      -0.76480001      -0.55770738       0.05066892       0.09375976      -0.01989458
V       10.61281013       4.60454845       1.25763369       0.16002877      -0.56169914       0.52305544       0.94653106      -1.70722806       0.73691428
Ti       7.67263842       4.29475498       4.25698376      -0.15720929      -0.02716086       0.15456123      -0.06978276      -0.00361450       0.01424463
Ti       7.90158176       4.49990797       1.32900560      -0.55542950      -0.46068566       0.26292232      -1.33127093      -1.03830171       0.69447374
Cr      12.18923378       2.91537404       2.82558441      -0.28499339       0.45366599       0.15812236      -0.00102677       0.01619528      -0.03549480
Cr      13.71932316       4.42617130       1.33222091       0.57068625      -0.87971677       0.10238262       0.02968718      -0.00459114       0.01867820
Ti      13.75646114       1.35638928       1.34140313      -0.09987881      -0.28539337       0.10084127      -0.10816674       0.00505845      -0.04242260
V       12.19846535       2.70719790       5.75799942       0.40802588       0.58628757       0.19605796       0.43537527       1.05482662       0.62390518
Ti      13.73605251       4.34222555       4.35253096      -0.49697074      -0.60335110      -0.25066359      -0.01625745       0.03273970       0.00068076
V       13.78442097       1.35397124       4.42487431       0.19050144      -0.65817263       0.02238316       0.03713125       0.06753701      -0.06011939
V       10.82262516       1.32734394       7.34962130      -0.67754629      -0.10541594      -0.41258002      -0.00237170      -0.03934631       0.01937593
Cr       9.06854725       2.88859320       8.92584705       0.65719973      -0.27156425       0.14251064       0.94077176      -0.49805486      -0.42709988
V        7.80550432       1.29343414       7.24636078      -0.50959902      -0.19928314       0.06368787      -0.54948968       0.40300938       0.47261176
V        7.64419127       4.26720333       7.34403133      -0.36268432      -0.22514473       0.56875242       0.04994804       0.01037968      -0.01524807
Ti       8.29743195       0.70098466       9.94494534      -0.23189620       0.61760264      -0.30347686      -0.02333168       0.06733702       0.04639595
V        9.29774761       2.87340260      11.95822239      -0.10284714       0.26637580       0.22787990       0.12859552      -0.04156927       0.07917568
Cr      10.84347725       1.32977557      10.44161987      -0.05040405      -0.23883826       0.30137553      -0.01233277      -0.05282155      -0.04653707
V       10.85255337       4.22962046       7.43035841      -0.48397329       0.27257317      -0.03256060      -0.05789571       0.00172197       0.01233546
Cr      10.71946526       4.29316711      10.43916988       0.18844055       0.05568121      -0.63059327       0.00387140       0.01862104      -0.01363318
Cr       7.63791180       4.44836950      10.57732010      -0.02267244       0.88240902      -0.46483258      -0.04018755       0.07795443      -0.06414469
Cr      13.79433441       1.39915597       7.44520903      -0.35579214       0.25190929      -0.13503623      -0.01894353      -0.03389694      -0.02105001
V       12.21525192       2.89784598       9.01974106       0.21762209       0.32331312      -0.81482883       0.24194470      -0.12525129      -0.99444479
V       13.72538280       4.32282972       7.44916868       0.07258204      -0.07280410       0.09094233      -0.01028580      -0.03200706      -0.01489832
Ti      13.68134212       1.40208983      10.52485657       0.05992922      -0.16685900      -0.03411302       0.44789386      -0.00623388      -0.79525775
V       12.22428036       2.95242810      11.95293999      -0.61321517      -0.32152958      -0.65962762       0.03258777      -0.01272212       0.01661445
V       13.75571156       4.37257719      10.43159008      -0.59604501      -0.16360521       0.25432363       0.05573455      -0.00215229      -0.06063799
Cr       9.46109962       5.65768003       5.67744255      -0.29799372      -0.49263579      -0.19565171       0.12106211      -0.04942047      -0.03573531
V        9.22509003       5.94244814       2.85668468       0.09238354      -0.12181509      -0.34320362       0.04075718      -0.00428449      -0.05746239
Cr       9.25238514       8.90019131       2.87771392       0.26222051      -0.07077882      -0.22257083      -0.47227511      -0.09352984      -0.29079929
V        7.81445265       7.33879137       4.35073090      -0.56914194       0.59930740      -0.80182474      -0.59471273       0.03225892      -0.62432742
Cr       9.31619453       8.83686256       5.79504204       0.07795040       0.20374581       0.47107962      -0.01069354      -0.01196047      -0.00986336
Ti      11.03968430       7.52611589       4.23699188      -0.43826408      -0.76782883      -0.76169399      -2.02563334      -1.81009865       0.21119222
V       10.76986885       7.40978575       1.30352509      -0.27787228      -0.04961746       0.30894648      -0.01992975       0.02212853       0.08003147
V        7.69654655       7.38149548       1.39436495       0.33573548       0.17522303       0.29811776      -0.01604533      -0.07314283      -0.01422930
Ti      12.34669781       5.88389444       5.54712820       0.17061196       0.22140618       0.97428221      -0.20510870      -0.49833512       1.87763667
Ti      12.19946671       5.88792992       2.78245974       0.09103692       0.76714046       0.37649079      -0.01718868      -0.00524503       0.00017137
Cr      13.66869926       7.60555935       4.31979513       0.51607196      -0.72008589      -0.17119762       2.10981178      -1.63076949      -0.02603058
Cr      12.36107254       8.81247520       2.83685756      -0.50146688       0.95907444       0.00685448      -0.43152103       1.66057014      -1.19609535
Ti      12.24319935       8.81238365       5.82119083       0.29696050       0.29683461       0.25634358       0.52385420       1.15723109       1.04393935
Cr      13.80690861       7.43002558       1.32241023      -0.63503855       0.12187802      -0.79159094       0.00223921      -0.02207422      -0.05724183
V        8.17397213       6.88970709       7.01065731       0.12257305      -0.22751513      -0.59244185       0.08181852       0.03565547       0.07589995
V        9.55008793       8.54791069       8.56639767       0.46666732       0.09671333      -0.16623779       0.01767700       0.07071055       0.10034612
Ti       9.09089565       5.58887720       8.94299793       0.78035814       0.02572095       0.19886972       1.23058963       1.12031245      -0.87772554
V       10.77170467       7.39050007      10.40107918      -0.20677149      -0.61166864       0.24192206      -0.05128747       0.18083116      -0.04265428
Cr       7.70332289       7.30038595      10.45612431       0.20765771       0.41897251      -0.62458844      -0.06185485       0.01412259      -0.01950551
V       10.93713379       7.25776720       7.25668478      -0.20456351       0.54808838       0.16660027      -0.08066914       0.00688355       0.08205634
Cr       9.30501080       5.94564152      11.90591145       0.24553545      -0.30670461       0.44950805      -0.01221351       0.08627679      -0.05868679
V        9.14829159       8.67300415      12.07191849       0.46415044       0.63930109       0.45156516       0.48601598       1.31996965       0.06315678
V       13.76568127       7.50887346       7.47012091      -0.25232211       0.52875350      -0.41537832       0.04188814      -0.00264423      -0.14076683
V       12.23318958       8.96042442       8.78214836       0.51000404      -0.47243637       0.48093477       0.54096162      -0.58253884       0.72591412
Cr      12.23637104       5.93400383      11.85366154      -0.28380703       0.61801368      -0.05872632       0.03870369      -0.00120723       0.08506402
Cr      12.15201378       5.89362335       8.97553444       0.59312678      -0.46767871       0.58871199       0.78721750      -0.26056719      -0.55114114
Cr      13.86973000       7.47821951      10.43935490      -0.94005271      -0.64754841      -0.91856949      -0.82609868       0.15401192      -0.51651567
V       12.22128010       8.87592220      11.94543076       0.14721479       0.16271158       0.20417447       0.12374818       0.01994659      -0.08128448
122
Lattice="15.100251138 0.0 0.0 0.0 9.06015068278 0.0 0.0 0.0 12.0802009104" Properties=species:S:1:pos:R:3:force:R:3:forces:R:3 config_type=di-sia_aa parent_id=99999999 generation=9 step=88 variance=1.0756745338439941 loss=1.0756745338439941 energy=-1066.9598051830558 pbc="T T T"
Cr       1.63157821       1.36939955       4.48314714      -0.36587870       0.14676284       0.26096739       0.03329979       0.00582351      -0.02157856
Cr       0.09335123       2.90002680       2.92688131      -0.12586468       0.03433973       0.00158128       0.01595107       0.01434848      -0.00240242
V        1.59485817       1.34561622       1.40924466      -0.17162178      -0.48986580      -0.15185871      -0.01582507      -0.01400635       0.05298122
Ti       0.14551170       2.95570946       5.93551779       0.14078846      -0.38299034       0.37673514      -0.00642720      -0.03347588       0.00946947
V        1.67130101       4.37778902       4.40367460       0.18610748       0.50910618      -0.20399171       0.00319597       0.02374600       0.03538165
V        3.06238461       2.93212271       2.97243142       0.70828261      -0.45906649       0.22706643      -0.00707459       0.02822616      -0.00573767
V        3.15625238       2.93332219       5.89775991       0.05657618       0.09440748       0.61230082      -0.25231478       0.08579201       0.14460103
V        1.57694483       4.39684629       1.44646442      -0.54401163      -0.17960151      -0.14616453      -0.01625753      -0.03951738       0.03591518
V        6.23247242       2.89744759       5.82601833      -0.36085173       0.22342113      -0.22283418       0.04194158       0.03140641       0.02693944
Ti       4.64503050       1.40362775       4.39292765       0.02737985       0.41010477       0.20490755      -0.00298099      -0.04957281       0.01927821
V        4.62910700       4.32165432       4.38196468       0.58339221      -0.41310784       0.35790154       0.14600638       0.09559216       0.04062119
V        5.83867359       3.38174605       0.26948953      -0.11384728       0.34992072       0.13414051       0.00361735       0.16280794       0.00445639
Cr       4.56328821       1.43619144       1.44202912       0.23210293      -0.18252576       0.81849694       0.02919621       0.09319337      -0.06186443
V        6.18054247       2.93735456       2.92954898       0.45117081       0.29384156      -0.04562392       0.00946377       0.02269350       0.04049186
V        4.43232536       4.55847597       1.48742723       0.74370913      -0.14887329       0.26904106       0.82895154      -0.17885678       0.55270112
V        1.60980678       1.38097024       7.42097330       0.26131946       0.19149700       0.17343776       0.02516527       0.04472044       0.02173165
V        1.54645574       1.38873410      10.44923496      -0.38663856       0.05685454       0.11397554       0.01802023      -0.00232548      -0.02569620
Cr       1.71342432       4.43491459      10.61030769       0.13727101       0.13583651      -0.88998385      -0.93017501      -0.34201479      -1.69828868
V        0.18994528       2.93270111       8.93935871       0.31980143      -0.24163957      -0.15673077       0.00922669       0.08970749       0.04267965
V        0.11028025       2.86988950      12.00075054      -0.04399461       0.71374445      -0.32658813       0.00972734       0.02023809       0.02161136
V        3.14313865       2.87436509       8.78674698       0.06444441       0.29233852       0.57134766      -0.31753725       0.30989534       0.53261608
Ti       3.02749991       2.92003655      12.04687309      -0.26497230      -0.51969992      -0.18017283       0.00666509      -0.08135852       0.03389795
V        1.66092062       4.45149517       7.37919903      -0.33373474      -0.86551173      -0.01778362       0.04381260      -0.55840510       0.54581684
Cr       6.16833830       2.92827821       8.87070274      -0.21533768       0.38259120      -0.20219532      -0.12724105      -0.00684651       0.07229817
V        4.40568876       1.70302558      10.68244457       0.04606738      -0.13662944      -0.72564571      -0.10912942       0.04030678       0.08546746
Cr       5.75457096       0.36057770       9.53746128      -0.49768628      -0.44644425      -0.38881894       0.00356154      -0.02962026       0.05878040
V        4.60178041       4.50850916      10.40531063       0.84579426      -0.11976945      -0.04409547       0.00066136      -0.01743634       0.02571041
V        7.10613060       2.02499795      11.25701427       0.20467637      -0.14500744       0.22315949      -0.04160827      -0.00395011      -0.01069279
Ti       4.59760189       4.36982965       7.37094784      -0.10299785       0.12087042       0.03390648       0.00057571       0.02808781      -0.02671240
Cr       4.70814466       1.33430290       7.20428896      -0.30070613       0.17801101      -0.04141129      -0.02090777      -0.01433367       0.03487494
Cr       1.62059844       7.43492460       1.37195826      -0.57124921       0.12971358       0.14083290      -0.04149471      -0.02384041       0.00107697
V        1.66393936       7.44418907       4.36496544      -0.04927341       0.67327227      -0.21320187      -0.03306240      -0.05478737       0.03092599
V        3.12045217       5.88029146       2.95699739       0.20405911      -0.09021369       0.21004877      -0.03404590      -0.05567838       0.03780748
V        0.19846158       8.87937355       2.79027033      -0.18632050       0.38292717       0.85834491      -0.11637254       0.64299899       0.64339280
Cr       0.13606276       5.92937374       5.92013979      -0.14441438       0.10345326       0.09956149      -0.08741539      -0.06036812      -0.08666173
V        0.14507608       5.87515450       2.90329862       0.34691665       0.15178821       0.04977573       0.02959579       0.00557790       0.03135994
Ti       3.13290095       8.81549644       5.91250134       0.55589946      -0.01661753      -0.54239576       0.02132229       0.07658587       0.00304624
V        3.13029194       5.88958836       5.90920353       0.32578007      -0.09082330       0.10070624       0.04074197       0.04380440      -0.03365359
Ti       3.11794996       8.90959644       2.96519804      -0.10598743       0.13893450      -0.97835700       0.00605329       0.03270046       0.03235218
V        0.15268588       8.91390705       5.93344450       0.47736408      -0.29318210      -0.35958845       0.15550497       0.00266791       0.08319706
Ti       4.64855099       7.43984365       4.41855383      -0.04421467      -0.45298984       0.14297403      -0.00994204       0.00722396      -0.01770484
Cr       6.13172626       5.88831711       5.91161060      -0.29879373      -0.13218156      -0.01322526       0.01211058      -0.00752782       0.01140995
Ti       6.24393272       5.93110323       2.93126893      -0.26575646      -0.45900853      -0.40911198      -0.00606455      -0.00314710      -0.03354836
Cr       4.59639454       7.40366459       1.37296343       0.32157921       1.01157008      -0.15940702       0.01495060       0.03049484       0.06498180
Cr       6.09144497       8.96120739       2.75634408       0.08684101       0.49760766       0.75684886       1.07995021      -0.39974082       1.10038877
V        6.41505003       8.86430836       5.88998365       0.28334670      -0.47145504       0.42007941      -0.65898049      -0.16108248      -1.58771122
Ti       1.62886000       7.43593502       7.46929312       0.22318832       0.07601629       0.24258350       0.04355420      -0.00732237       0.00241214
Cr       1.58551574       7.47634697      10.42682743       0.18149125       0.19376652      -0.03438093      -0.00350812      -0.01111175       0.01476850
V        0.14367169       9.02697659      11.96776485       0.38191199       0.68472969       0.59474338      -0.00759369      -0.07167718      -0.03904102
Cr       0.10008891       5.88303566      11.97718525       0.32316610       0.07623081       0.35646339      -0.06249002      -0.01813569      -0.00616583
V        0.12231575       5.89038229       8.88647175       0.16851355       0.36920163       0.02375374      -0.03605007       0.02262596       0.04106213
Cr       3.21351647       8.87423611       9.02292061      -0.72101319      -0.12608125      -0.00867691      -1.05999851       0.51747650      -0.29831630
V        0.13979532       8.97482204       8.93852425      -0.06218527      -0.20815084      -0.08097632      -0.00369542      -0.05063263      -0.00549178
Ti       3.18796420       5.87898016       8.88836384       0.33808416       0.28430536      -0.15309352      -0.01104378      -0.00538841       0.01896914
V        3.09079075       8.98225307      11.89154720       0.53043149      -0.43887057       0.01169525       0.01292264       0.04476626       0.03773234
Cr       3.13310337       5.95221996      11.95064926      -0.37731737      -0.18181957       0.00480132      -0.00415198      -0.06664061       0.05898686
Ti       6.24538517       8.86443996      12.05654907      -0.22597368      -0.38196772       0.23595474       0.01688171       0.01874638       0.00553087
V        6.85513020       8.12121201       8.12788010      -0.47738432       0.42370668       0.10106515      -0.13937424       0.13446516       0.07170452
V        6.31798697       5.87926865       8.95656013      -0.42451744      -0.54657170      -0.26559470      -1.39459074      -0.78959912      -0.59019107
Ti       4.76918697       7.33929825      10.45411301       0.14362377       0.08193017      -0.40977597      -0.04352252       0.03039506       0.01025298
V        4.51858521       7.37692213       7.44413471       0.08852217      -0.14537783       0.23978172       0.00401167       0.00582524       0.00845811
V        6.13392353       5.97495985      11.98773479      -0.08912998      -0.06012612      -0.02735899       0.01955664      -0.00969639       0.00029598
Cr      10.75431156       1.32253265       1.26135135       0.60077273       0.21397182       0.47973564      -0.09905332      -0.00845107       0.03030300
V        7.66185474       1.37282038       4.33770084       0.01397884      -0.10314918      -0.28563602      -0.00013956      -0.01007359       0.02573386
Ti       9.18608379       2.67059135       2.82844687      -0.20333036       0.07187285      -0.62561429      -0.19318680       1.55019450       0.09194534
Cr       9.25157070       2.79222107       5.87291718       0.60718731       0.47678775       0.25825239       0.01535766       0.05044800      -0.04735764
V        7.69950867       1.44332325       1.46345115      -0.20627133      -0.38632234       0.07867734      -0.01089545       0.02744352      -0.03517513
V       10.73997116       4.28743410       4.24133110      -0.13751938       0.00984185       0.24014408       0.08165349      -0.05889298      -0.06387913
Cr      10.79922867       1.32204759       4.32190228      -0.48956981      -0.76480001      -0.55770738      -0.01047597       0.08276372       0.00023581
V       10.59649277       4.59943104       1.26525247       0.16002877      -0.56169914       0.52305544       1.05350256      -1.63896596       0.65771592
Ti       7.65944672       4.28689575       4.25169325      -0.15720929      -0.02716086       0.15456123       0.00943737       0.03100840       0.04093604
Ti       7.91037941       4.50717497       1.34452522      -0.55542950      -0.46068566       0.26292232      -1.38796556      -1.05436301       0.56619668
Cr      12.18706989       2.91681910       2.83407140      -0.28499339       0.45366599       0.15812236      -0.02172898       0.00666128      -0.08387481
Cr      13.72844028       4.40794849       1.33579350       0.57068625      -0.87971677       0.10238262      -0.02416262       0.06564141       0.00584526
Ti      13.73485279       1.35684037       1.36143851      -0.09987881      -0.28539337       0.10084127       0.07908742       0.01111696      -0.15723285
V       12.20819187       2.69492912       5.75371218       0.40802588       0.58628757       0.19605796       0.38525245       1.12090158       0.66896045
Ti      13.72121334       4.34145975       4.35174656      -0.49697074      -0.60335110      -0.25066359       0.13851550       0.02843026      -0.00021663
V       13.79339314       1.36113775       4.40830708       0.19050144      -0.65817263       0.02238316       0.03095646       0.06477286       0.01703190
V       10.82399082       1.32452238       7.34814978      -0.67754629      -0.10541594      -0.41258002       0.01278252      -0.03862138       0.01938407
Cr       9.06133652       2.88479948       8.92435741       0.65719973      -0.27156425       0.14251064       0.97996891      -0.45046824      -0.42982575
V        7.79170799       1.29762292       7.25387812      -0.50959902      -0.19928314       0.06368787      -0.48030585       0.37684900       0.39131531
V        7.65689039       4.26263285       7.33544302      -0.36268432      -0.22514473       0.56875242      -0.01450237      -0.00618144       0.01920335
Ti       8.29293156       0.70287961       9.94375038      -0.23189620       0.61760264      -0.30347686      -0.00598849       0.03399836       0.05267799
V        9.30308533       2.87617660      11.96676254      -0.10284714       0.26637580       0.22787990       0.07994075      -0.02280632       0.04450735
Cr      10.83711910       1.32825327      10.43828106      -0.05040405      -0.23883826       0.30137553       0.01828179      -0.01490057      -0.01816092
V       10.85006714       4.22540140       7.42798662      -0.48397329       0.27257317      -0.03256060      -0.04653347       0.00274025       0.02705172
Cr      10.71733952       4.29305506      10.44039917       0.18844055       0.05568121      -0.63059327       0.01018324       0.01368221      -0.01134051
Cr       7.62286234       4.45881891      10.57840633      -0.02267244       0.88240902      -0.46483258       0.04280457      -0.00540689      -0.00271923
Cr      13.80016518       1.39305866       7.44562149      -0.35579214       0.25190929      -0.13503623      -0.03529573      -0.00546138      -0.02396089
V       12.21165085       2.89872193       9.01163960       0.21762209       0.32331312      -0.81482883       0.24842095      -0.13297403      -0.94872445
V       13.72514820       4.33078527       7.44789553       0.07258204      -0.07280410       0.09094233      -0.00749425      -0.06045510      -0.02528517
Ti      13.67066574       1.39272964      10.52950001       0.05992922      -0.16685900      -0.03411302       0.53360045       0.07304366      -0.81699216
V       12.22440147       2.95290375      11.95440483      -0.61321517      -0.32152958      -0.65962762       0.01388144      -0.02172763      -0.00014046
V       13.76145267       4.37063503      10.42726040      -0.59604501      -0.16360521       0.25432363       0.01770951       0.00411161      -0.02999790
Cr       9.47628403       5.65447330       5.66249847      -0.29799372      -0.49263579      -0.19565171      -0.19532673       0.10482210       0.21738195
V        9.22372150       5.94738531       2.85436821       0.09238354      -0.12181509      -0.34320362       0.04861213       0.01342346      -0.04422327
Cr       9.24383545       8.90668106       2.86391830       0.26222051      -0.07077882      -0.22257083      -0.37967849      -0.16478840      -0.16405299
V        7.81054926       7.34236813       4.33920336      -0.56914194       0.59930740      -0.80182474      -0.55478799       0.02433920      -0.54049963
Cr       9.31561184       8.84308910       5.79953003       0.07795040       0.20374581       0.47107962      -0.01237282      -0.06476723      -0.04412360
Ti      11.03699875       7.51166344       4.24394464      -0.43826408      -0.76782883      -0.76169399      -2.04435444      -1.65871143       0.09344970
V       10.77742863       7.40998316       1.30797160      -0.27787228      -0.04961746       0.30894648      -0.02734396       0.02477157       0.07703322
V        7.69851446       7.38413906       1.38804829       0.33573548       0.17522303       0.29811776      -0.05644647      -0.07829463       0.01186002
Ti      12.33007622       5.86604786       5.53388309       0.17061196       0.22140618       0.97428221      -0.05573104      -0.37130722       1.97547626
Ti      12.20419407       5.88616514       2.78142786       0.09103692       0.76714046       0.37649079      -0.04905298       0.01030969      -0.01379397
Cr      13.65164852       7.62635183       4.32698679       0.51607196      -0.72008589      -0.17119762       2.34546614      -1.87761247      -0.07783753
Cr      12.37691784       8.82930756       2.85862517      -0.50146688       0.95907444       0.00685448      -0.61757225       1.57176423      -1.35419726
Ti      12.25813961       8.80676937       5.81746864       0.29696050       0.29683461       0.25634358       0.32968318       1.24117613       1.17569959
Cr      13.80537128       7.42348099       1.32005930      -0.63503855       0.12187802      -0.79159094       0.03178283      -0.00094029      -0.00835429
V        8.16067123       6.90065002       7.02509451       0.12257305      -0.22751513      -0.59244185       0.39144564      -0.20640075      -0.21631460
V        9.54814148       8.55036926       8.56925488       0.46666732       0.09671333      -0.16623779       0.00597428       0.07777417       0.06462195
Ti       9.08346844       5.58714724       8.95190716       0.78035814       0.02572095       0.19886972       1.29760683       1.13525844      -0.93781894
V       10.77420998       7.40422058      10.40158749      -0.20677149      -0.61166864       0.24192206      -0.04720137       0.11941140      -0.02757046
Cr       7.70316935       7.30523300      10.45439720       0.20765771       0.41897251      -0.62458844      -0.07234562       0.02159045      -0.00438377
V       10.93451118       7.25901699       7.26045084      -0.20456351       0.54808838       0.16660027      -0.07216375      -0.00995681       0.06537927
Cr       9.30649567       5.96191454      11.89540386       0.24553545      -0.30670461       0.44950805      -0.00121870      -0.05035862       0.02302584
V        9.14752960       8.66770458      12.07525635       0.46415044       0.63930109       0.45156516       0.50478095       1.38332272       0.04076824
V       13.77135563       7.51300478       7.44668674      -0.25232211       0.52875350      -0.41537832       0.01897271      -0.03131872      -0.01703753
V       12.23006439       8.95887184       8.78684139       0.51000404      -0.47243637       0.48093477       0.57976598      -0.57982326       0.66181564
Cr      12.23603821       5.92781639      11.85831165      -0.28380703       0.61801368      -0.05872632       0.03582418      -0.00141306       0.07544065
Cr      12.14795017       5.90238476       8.98287773       0.59312678      -0.46767871       0.58871199       0.79577464      -0.31448239      -0.58608335
Cr      13.86019802       7.48155642      10.44807053      -0.94005271      -0.64754841      -0.91856949      -0.74743712       0.10619696      -0.57974851
V       12.22926998       8.87370110      11.94545174       0.14721479       0.16271158       0.20417447       0.04841624       0.01711419      -0.02704837
122
Lattice="15.100251138 0.0 0.0 0.0 9.06015068278 0.0 0.0 0.0 12.0802009104" Properties=species:S:1:pos:R:3:force:R:3:forces:R:3 config_type=di-sia_aa parent_id=99999999 generation=9 step=99 variance=1.1118768453598022 loss=1.1118768453598022 energy=-1066.8171637958671 pbc="T T T"
Cr       1.63247764       1.37003088       4.47701216      -0.36587870       0.14676284       0.26096739       0.00613304      -0.01628359       0.00705071
Cr       0.09903070       2.89982796       2.92323041      -0.12586468       0.03433973       0.00158128       0.00645659       0.01555108       0.00916925
V        1.59556484       1.34394062       1.40503836      -0.17162178      -0.48986580      -0.15185871      -0.01726035      -0.00317569       0.06171326
Ti       0.14377919       2.95495462       5.93505955       0.14078846      -0.38299034       0.37673514      -0.01420606      -0.03732479       0.02591065
V        1.67698550       4.37405920       4.40980196       0.18610748       0.50910618      -0.20399171      -0.01851917       0.07223490      -0.01170475
V        3.07217479       2.93380713       2.97785616       0.70828261      -0.45906649       0.22706643      -0.03895102       0.01537434       0.01012799
V        3.11846209       2.95151949       5.92358780       0.05657618       0.09440748       0.61230082      -0.02874120      -0.00147737      -0.00116243
V        1.57806492       4.39198160       1.44398439      -0.54401163      -0.17960151      -0.14616453      -0.00590121      -0.00947375       0.06847956
V        6.24360847       2.90315294       5.82880259      -0.36085173       0.22342113      -0.22283418      -0.02449700       0.01600927       0.02259023
Ti       4.63999701       1.40450633       4.39760637       0.02737985       0.41010477       0.20490755       0.01166188      -0.03207442      -0.01072900
V        4.64628553       4.33541679       4.38877487       0.58339221      -0.41310784       0.35790154       0.01745079       0.01740727       0.03039033
V        5.84268427       3.38394284       0.26165241      -0.11384728       0.34992072       0.13414051      -0.01206448       0.14592022       0.02799786
Cr       4.57113695       1.44313669       1.44434059       0.23210293      -0.18252576       0.81849694       0.00569649       0.03053429      -0.03486461
V        6.17820168       2.94872999       2.93857551       0.45117081       0.29384156      -0.04562392       0.02545520      -0.01228890       0.00894721
V        4.42298508       4.54512310       1.47818291       0.74370913      -0.14887329       0.26904106       0.89993185      -0.08039082       0.63032478
V        1.60377944       1.38789165       7.43650341       0.26131946       0.19149700       0.17343776       0.02689428      -0.00176421      -0.01819500
V        1.54555321       1.38861871      10.44917107      -0.38663856       0.05685454       0.11397554       0.03026941       0.01587361      -0.03439678
Cr       1.71704876       4.43874693      10.61199665       0.13727101       0.13583651      -0.88998385      -0.90918446      -0.37938643      -1.72905087
V        0.18482019       2.93561625       8.94013500       0.31980143      -0.24163957      -0.15673077       0.02365839       0.06275818       0.06646356
V        0.11396382       2.88159466      12.00251007      -0.04399461       0.71374445      -0.32658813      -0.01848660      -0.06884953       0.00291815
V        3.15994096       2.85897613       8.76996613       0.06444441       0.29233852       0.57134766      -0.40338072       0.35861504       0.67294359
Ti       3.02893996       2.91572547      12.04920959      -0.26497230      -0.51969992      -0.18017283      -0.00809167      -0.07313260      -0.00286837
V        1.65998447       4.44323158       7.38935518      -0.33373474      -0.86551173      -0.01778362       0.01446258      -0.47501382       0.46417761
Cr       6.16556883       2.92548752       8.87948322      -0.21533768       0.38259120      -0.20219532      -0.16443579       0.01508154       0.05999969
V        4.40587950       1.70008647      10.68176079       0.04606738      -0.13662944      -0.72564571      -0.12686840       0.01366249       0.11048163
Cr       5.75622416       0.36044052       9.53909302      -0.49768628      -0.44644425      -0.38881894      -0.01958212      -0.05419955       0.00925096
V        4.60101700       4.51067257      10.40775108       0.84579426      -0.11976945      -0.04409547       0.01151825      -0.03864273       0.01447889
V        7.10730696       2.02465105      11.25355053       0.20467637      -0.14500744       0.22315949      -0.02705736      -0.00855846       0.00833970
Ti       4.59909248       4.37639761       7.37475872      -0.10299785       0.12087042       0.03390648       0.02165724      -0.00429906      -0.05477527
Cr       4.71224499       1.32061088       7.19516373      -0.30070613       0.17801101      -0.04141129      -0.02884106       0.00000400       0.02618455
Cr       1.61350167       7.43457842       1.37220991      -0.57124921       0.12971358       0.14083290       0.00496952      -0.01040260      -0.01022449
V        1.66631114       7.45066023       4.36230087      -0.04927341       0.67327227      -0.21320187      -0.04318216      -0.08082315       0.03793984
V        3.12701201       5.88155890       2.95657492       0.20405911      -0.09021369       0.21004877      -0.05142068      -0.06461269       0.04786029
V        0.17780004       8.86279869       2.77547598      -0.18632050       0.38292717       0.85834491       0.04219963       0.77096051       0.74241036
Cr       0.11848088       5.92444849       5.90391684      -0.14441438       0.10345326       0.09956149       0.01589463      -0.00083030      -0.01116402
V        0.15010318       5.88570070       2.90570807       0.34691665       0.15178821       0.04977573       0.02930955      -0.07745729      -0.00017187
Ti       3.11582065       8.81509972       5.92082310       0.55589946      -0.01661753      -0.54239576       0.05466410       0.06437057      -0.04092056
V        3.13775563       5.89610910       5.90134287       0.32578007      -0.09082330       0.10070624      -0.00234375      -0.00391863       0.01345301
Ti       3.12328935       8.91506577       2.96682239      -0.10598743       0.13893450      -0.97835700      -0.02154297       0.01287516       0.01947856
V        0.17136738       8.90883064       5.95244265       0.47736408      -0.29318210      -0.35958845      -0.04694538       0.00556561      -0.04064874
Ti       4.65221977       7.44212294       4.41743088      -0.04421467      -0.45298984       0.14297403      -0.02460240      -0.01109206      -0.01821234
Cr       6.13913918       5.89029884       5.91465092      -0.29879373      -0.13218156      -0.01322526       0.00730702      -0.00794288       0.02633496
Ti       6.24162912       5.92798519       2.92818475      -0.26575646      -0.45900853      -0.40911198      -0.01255860      -0.00450865      -0.04075783
Cr       4.59535074       7.40316153       1.36997271       0.32157921       1.01157008      -0.15940702       0.01395303       0.04099793       0.06292375
Cr       6.10226011       8.94111443       2.75515342       0.08684101       0.49760766       0.75684886       1.00091696      -0.27569795       1.09397984
V        6.43215513       8.83275223       5.88413668       0.28334670      -0.47145504       0.42007941      -0.75877136       0.01659442      -1.59156466
Ti       1.62358642       7.42802668       7.46994448       0.22318832       0.07601629       0.24258350       0.02781182      -0.00938440      -0.01664372
Cr       1.58342147       7.47063971      10.42666817       0.18149125       0.19376652      -0.03438093       0.00451154      -0.00565649      -0.00502045
V        0.14800523       9.04063511      11.95601273       0.38191199       0.68472969       0.59474338      -0.05915704      -0.17303507       0.02649282
Cr       0.10125571       5.87990141      11.97607613       0.32316610       0.07623081       0.35646339      -0.07680676      -0.01530346      -0.00870178
V        0.11621260       5.88380957       8.87885094       0.16851355       0.36920163       0.02375374      -0.00983507       0.03207392       0.06591331
Cr       3.20249701       8.86606693       9.01596069      -0.72101319      -0.12608125      -0.00867691      -0.98625076       0.55893874      -0.26063889
V        0.12727749       8.97652531       8.94292545      -0.06218527      -0.20815084      -0.08097632       0.04367032      -0.07304112      -0.02966497
Ti       3.19549775       5.87646437       8.88267517       0.33808416       0.28430536      -0.15309352      -0.05744169       0.00179606       0.04951533
V        3.07682252       8.97716522      11.88576031       0.53043149      -0.43887057       0.01169525       0.10183289       0.09947091       0.06382685
Cr       3.13398671       5.95583200      11.95635700      -0.37731737      -0.18181957       0.00480132      -0.01422587      -0.06705908       0.03584244
Ti       6.25054884       8.86718941      12.05667591      -0.22597368      -0.38196772       0.23595474      -0.01592268       0.00024561       0.00593372
V        6.85709095       8.11780357       8.12370205      -0.47738432       0.42370668       0.10106515      -0.11760664       0.06938034       0.08866888
V        6.32859707       5.86194515       8.95243835      -0.42451744      -0.54657170      -0.26559470      -1.45638895      -0.65449768      -0.58879322
Ti       4.76664495       7.34233999      10.44900990       0.14362377       0.08193017      -0.40977597      -0.03314900       0.01930200       0.01450428
V        4.51431274       7.37755299       7.44219112       0.08852217      -0.14537783       0.23978172       0.04939678      -0.00698158       0.01079464
V        6.13340569       5.97619295      11.98193550      -0.08912998      -0.06012612      -0.02735899      -0.00232766      -0.02252921       0.01562814
Cr      10.75409222       1.31364429       1.26656723       0.60077273       0.21397182       0.47973564      -0.09060600       0.01954140       0.00191951
V        7.65422869       1.37319553       4.33517408       0.01397884      -0.10314918      -0.28563602       0.03254722      -0.03076224       0.02338363
Ti       9.17471123       2.64981484       2.81842160      -0.20333036       0.07187285      -0.62561429      -0.13365960       1.67311096       0.15212840
Cr       9.25184536       2.79204988       5.87150240       0.60718731       0.47678775       0.25825239      -0.01038634       0.03261322      -0.03620495
V        7.69361973       1.44376636       1.46069515      -0.20627133      -0.38632234       0.07867734      -0.00804781       0.01201123      -0.04608962
V       10.76076221       4.28527021       4.22547865      -0.13751938       0.00984185       0.24014408      -0.08941780      -0.00683467       0.07940741
Cr      10.78772736       1.32690513       4.32407713      -0.48956981      -0.76480001      -0.55770738       0.02235596       0.06919225      -0.01812880
V       10.58501720       4.60534811       1.26308763       0.16002877      -0.56169914       0.52305544       1.14147699      -1.70890450       0.68351758
Ti       7.67132950       4.29689169       4.25853491      -0.15720929      -0.02716086       0.15456123      -0.06973820      -0.04019517      -0.02571630
Ti       7.90767670       4.51747274       1.33685255      -0.55542950      -0.46068566       0.26292232      -1.37342775      -1.13674879       0.64175916
Cr      12.19631195       2.91201091       2.83208513      -0.28499339       0.45366599       0.15812236      -0.03626801       0.01238248      -0.05840341
Cr      13.72439289       4.41558266       1.33284223       0.57068625      -0.87971677       0.10238262       0.02243530       0.01841740       0.02535380
Ti      13.73936844       1.35188615       1.36394942      -0.09987881      -0.28539337       0.10084127       0.03541162       0.02115512      -0.14910194
V       12.20575619       2.69102502       5.76126957       0.40802588       0.58628757       0.19605796       0.41476139       1.15476894       0.60810959
Ti      13.73274612       4.34926319       4.34834290      -0.49697074      -0.60335110      -0.25066359       0.02506007      -0.01713983      -0.00319816
V       13.80011368       1.36563158       4.41771889       0.19050144      -0.65817263       0.02238316      -0.02281893      -0.00006335      -0.00026965
V       10.81796837       1.32436514       7.34717035      -0.67754629      -0.10541594      -0.41258002       0.00637150      -0.03455690       0.01462090
Cr       9.06134033       2.88729692       8.90913105       0.65719973      -0.27156425       0.14251064       0.98578298      -0.49634358      -0.34648347
V        7.75514412       1.31135774       7.26453114      -0.50959902      -0.19928314       0.06368787      -0.29317844       0.30448341       0.29238734
V        7.65310812       4.25505114       7.33916330      -0.36268432      -0.22514473       0.56875242       0.01463080       0.02870946      -0.01436196
Ti       8.29645157       0.70582569       9.94552612      -0.23189620       0.61760264      -0.30347686      -0.02263571       0.03205014       0.01184780
V        9.30449772       2.87399602      11.96443748      -0.10284714       0.26637580       0.22787990       0.07779506      -0.02262667       0.05644749
Cr      10.83677483       1.33474064      10.44212246      -0.05040405      -0.23883826       0.30137553       0.03536732      -0.04008064      -0.05598269
V       10.84709835       4.22395039       7.43207026      -0.48397329       0.27257317      -0.03256060      -0.03223515       0.01509493       0.01412670
Cr      10.72118282       4.28753090      10.44116592       0.18844055       0.05568121      -0.63059327       0.01954446       0.04134906      -0.04634683
Cr       7.62819672       4.45807076      10.58169842      -0.02267244       0.88240902      -0.46483258       0.03788732      -0.02672654      -0.02474450
Cr      13.79556751       1.39240098       7.44634295      -0.35579214       0.25190929      -0.13503623      -0.00836351      -0.01928312      -0.03120985
V       12.22005081       2.89767909       8.99975300       0.21762209       0.32331312      -0.81482883       0.17639618      -0.11923940      -0.86288583
V       13.71901703       4.33054829       7.44475698       0.07258204      -0.07280410       0.09094233      -0.00376065      -0.06920952      -0.01182529
Ti      13.66259289       1.38044167      10.52820301       0.05992922      -0.16685900      -0.03411302       0.59939951       0.18668708      -0.80660498
V       12.22789669       2.94028068      11.96620655      -0.61321517      -0.32152958      -0.65962762      -0.00361821       0.03607339      -0.06201454
V       13.75984287       4.36841869      10.43084812      -0.59604501      -0.16360521       0.25432363       0.02497306       0.00393419      -0.05416768
Cr       9.46225452       5.65549564       5.67418861      -0.29799372      -0.49263579      -0.19565171       0.06007346      -0.00175195      -0.03580725
V        9.22391891       5.95351410       2.85654593       0.09238354      -0.12181509      -0.34320362       0.02581727      -0.00383313      -0.06334293
Cr       9.23926163       8.89884472       2.85102105       0.26222051      -0.07077882      -0.22257083      -0.39985061      -0.10114207      -0.10097181
V        7.79030418       7.34945774       4.32755518      -0.56914194       0.59930740      -0.80182474      -0.43024072      -0.04807777      -0.47242984
Cr       9.30686188       8.83723736       5.79519272       0.07795040       0.20374581       0.47107962      -0.03242562       0.02182220      -0.01623975
Ti      11.04579639       7.52602768       4.22401381      -0.43826408      -0.76782883      -0.76169399      -2.35326767      -1.87690198       0.30049145
V       10.77865982       7.41168499       1.29935992      -0.27787228      -0.04961746       0.30894648      -0.05010493      -0.01605747       0.08798009
V        7.69742823       7.37818718       1.38332605       0.33573548       0.17522303       0.29811776      -0.04753981      -0.05505826      -0.00448579
Ti      12.31762886       5.86277580       5.54458570       0.17061196       0.22140618       0.97428221      -0.03528106      -0.35941625       1.90564859
Ti      12.20366955       5.87845802       2.77433705       0.09103692       0.76714046       0.37649079      -0.05494605      -0.00152074      -0.02623877
Cr      13.62205124       7.61416531       4.30251837       0.51607196      -0.72008589      -0.17119762       2.58248019      -1.86987591       0.15390676
Cr      12.36255741       8.81632900       2.86918736      -0.50146688       0.95907444       0.00685448      -0.52385807       1.82306373      -1.56015956
Ti      12.23810577       8.81128883       5.81509829       0.29696050       0.29683461       0.25634358       0.47393185       1.21672189       1.21301937
Cr      13.80792046       7.41971207       1.32110095      -0.63503855       0.12187802      -0.79159094      -0.00238799      -0.00727458      -0.07219711
V        8.17809582       6.89673471       7.01933765       0.12257305      -0.22751513      -0.59244185       0.16621324      -0.11791962      -0.08919337
V        9.54477882       8.55669594       8.56607056       0.46666732       0.09671333      -0.16623779       0.01236459       0.07499211       0.06559484
Ti       9.07146358       5.58449793       8.94820690       0.78035814       0.02572095       0.19886972       1.37941074       1.16636682      -0.89395416
V       10.77292728       7.41681147      10.39347458      -0.20677149      -0.61166864       0.24192206      -0.04577652       0.05127972       0.02626420
Cr       7.69267654       7.30690098      10.45348454       0.20765771       0.41897251      -0.62458844      -0.00098659       0.03137383      -0.00887929
V       10.92994404       7.25958586       7.26610804      -0.20456351       0.54808838       0.16660027      -0.07190385       0.01526733       0.03769102
Cr       9.30752945       5.95864964      11.89558983       0.24553545      -0.30670461       0.44950805      -0.01847057       0.05679834      -0.07271715
V        9.15329456       8.67298317      12.07128716       0.46415044       0.63930109       0.45156516       0.47584480       1.33985424       0.00668741
V       13.76098156       7.50882864       7.44241571      -0.25232211       0.52875350      -0.41537832       0.05297232      -0.00380942      -0.02035111
V       12.23797131       8.96352386       8.78650665       0.51000404      -0.47243637       0.48093477       0.49496573      -0.62142837       0.66090930
Cr      12.23441219       5.92773724      11.85558319      -0.28380703       0.61801368      -0.05872632       0.04123762       0.00154165       0.04981073
Cr      12.15536499       5.90951586       8.98139381       0.59312678      -0.46767871       0.58871199       0.74111193      -0.35932821      -0.57058835
Cr      13.86818409       7.47921562      10.44851589      -0.94005271      -0.64754841      -0.91856949      -0.79882878       0.11553198      -0.57361865
V       12.22966957       8.87172794      11.95134163       0.14721479       0.16271158       0.20417447       0.04427539       0.02543414      -0.07666560
