121
Lattice="9.04215026885 0.0 0.0 0.0 12.0474946843 0.0 0.0 0.0 15.109870339" Properties=species:S:1:pos:R:3:force:R:3 config_type=sia pbc="T T T"
V        1.61990414       1.74125183       1.54009390       0.12336864      -0.55775086       0.26652868
Cr       0.17520995       3.11677651       3.15477645      -0.30471008       0.36888619      -0.26157671
Cr       3.15390149       3.06696921       0.04316254      -0.14483782       0.42276353       0.19493684
Ti       1.64714104       4.68753192       1.70099390       0.01524858      -0.46384834      -0.57507944
Cr       3.17096806       3.09415906       3.16234069      -0.08509405       0.23608282      -0.31136076
V        0.09761348       3.20499773       0.12866731       0.28828765      -0.55882773      -0.26871112
Ti       3.06103259       0.05249309       3.07193676       0.37805461       0.63142304       0.02508166
Cr       0.11819404       0.20199620       3.19589054       0.15998867      -0.27372486      -0.29410120
V        3.17539936       0.17951046       0.10876603      -0.35674453      -0.13707954      -0.19979723
V        0.08271692       0.15694853       0.01865826       0.39279499      -0.14148923       0.51735942
V        3.06084443       0.06819048       6.06955771       0.13511636       0.32327942       0.30897587
V        0.16800229       3.13391835       6.15819289      -0.38956597      -0.09577405      -0.11714668
V        3.13254475       3.06418435       6.05578402      -0.22865876       0.48156623       0.44052387
Cr       1.60274348       1.64551341       4.65894022       0.11349473      -0.20055457      -0.22876322
V        1.66825317       4.66159335       4.65354929      -0.18164018      -0.13909514      -0.05803332
Cr       0.15216537      -0.04439360       6.18467713      -0.50040781       0.98748333      -0.12993435
V        1.65012346       1.62871967      10.62239162       0.09284277       0.09780789      -0.04371548
Ti       1.71854030       4.69474805      10.69530560       0.24891965      -0.13255286      -0.27944305
V        3.15390149       3.12181934       9.14141920      -0.24226432       0.20586085       0.21024379
Cr       0.16009277       0.01617571       9.08902462      -0.24410837       0.80602365       0.36256282
Ti       1.57260884       4.59503935       7.58189725       0.22888302       0.12901640       0.34742727
Ti       3.11043534       0.18254181       9.03927376       0.21686370      -0.44867982       0.95057070
V        0.09973504       3.13351380       9.14413818       0.16815693      -0.09169343       0.01600119
Ti       1.61060878       1.59121837       7.66238488      -0.07467103       0.04581711      -0.30137985
Cr       1.63961443       1.55843059      13.63350401       0.21551379       0.48192373       0.26571851
V        0.11860236       3.03705095      12.12564279       0.28768070       0.04952769       0.07265712
Ti       1.68293005       4.68201868      13.73624216      -0.07634035      -0.58774094      -0.14681849
Cr       0.21511037       0.14997231      12.12554870      -0.31214203      -0.21112271       0.16380953
Ti       3.11658834       3.21132948      12.16873260       0.15023462      -0.36455990       0.02632671
Cr       4.58069176       1.53490054       7.59321538      -0.13825882       0.06305176      -0.06047647
Ti       3.14910327       0.07797083      12.15019833       0.13594777       0.06708415       0.01240439
V        1.64292614       7.69122119       1.71221795      -0.31573477      -0.43787051      -0.11670711
Ti       0.12906904       9.15358408       0.15641508      -0.41727118       0.08700563       0.07074955
V        1.55869402      10.70800675       1.58550755       0.12451573      -0.14523481       0.18908651
Ti       3.15081558       9.23126805       0.24512271       0.30973414       0.10444106      -0.38234872
Ti       3.18223916       6.12157595       0.16938530       0.21114748      -0.14190603       0.18283750
Cr       3.10757524       6.19129114       3.10212785       0.24864179      -0.36286768       0.51937467
V        0.12394155       6.10397311       3.20192123       0.02726826       0.40408804      -0.41071015
V        3.16474921       9.16856202       3.09381095      -0.19989548       0.23965565       0.39695800
V        0.11259049       9.16557019       3.17909680       0.18811493      -0.03344905      -0.22755072
Ti       0.05968278       6.03720272       0.05898713       0.39416593       0.51259765       0.86201062
Cr       0.11958082       6.16475985       6.17386704      -0.04190235      -0.08556814      -0.30348755
V        3.08778027       6.17412106       6.10990031       0.20860918      -0.05229005       0.17437783
Cr       3.16322507       9.18095269       6.11527243      -0.19956182       0.02006404       0.05763686
V        1.64852405       7.60734658       4.68040046      -0.03611526       0.43978534      -0.11759395
V        1.63978378      10.62389694       4.60271649      -0.14714380       0.03495247       0.16214488
V        0.07916784       9.13054326       6.20000318       0.35920676       0.03519844      -0.36619116
Cr       1.62964168       7.78069370      10.57713791       0.37468230      -0.84800609      -0.05239464
V        1.67164014      10.65936607      10.60084671       0.19461945       0.13702701       0.51475732
V        3.27171167       9.11217834       9.19362562      -0.60058442       0.52209752      -0.36571525
Cr       1.63306629      10.64920515       7.68457896       0.34446019      -0.21103680      -0.27389820
Cr       0.17306864       9.22754238       9.20929036      -0.42468140      -0.45623039      -0.31589002
Cr       0.08997868       6.10320163       9.14143802       0.26157478       0.32109079      -0.72278924
V        1.60513317       7.70669777       7.69091071       0.21425658      -0.29311720      -0.27242643
V        3.12059626       6.18078211       9.01607300       0.13114898      -0.07698032       0.73799726
Ti       1.84957849       7.80368748      13.97361246       0.07904385       0.27709667       0.22855053
Ti       0.11838785       9.12013773      12.20758870       0.12510576       1.01786707      -0.07278165
Cr       1.54673613      10.61044313      13.67875771       0.43598145       0.45394227       0.10056438
Cr       3.08331134       9.15410152      12.16976751       0.70566422       0.22470573      -0.21984451
Cr       0.64571685       6.60821800      12.62117564       0.04506623       0.36969481       0.03009417
V        3.19491207       6.24273548      12.17541246       0.39725823      -0.16635280       0.15196626
Ti       7.65022942       1.56442365       1.62098608       0.38612614       0.56528880       0.21656025
Ti       6.29385994       0.20476128       0.06084188      -0.88431171      -0.58113194       0.15639659
V        7.65149012       4.67086990       1.52568986       0.02175996      -0.47104544       0.72155284
Ti       6.18817699       3.05878402       3.13882005      -0.21428843       0.57691073      -0.30100857
Ti       4.65712443       4.51196445       1.55211766      -0.17319122       0.54314502       0.39128033
Cr       4.71173936       1.56927831       1.64821358      -0.37853052       0.23090911      -0.15344603
Ti       6.15695099       0.14792037       3.22751168       0.22981768      -0.16057531      -0.49639897
V        6.15693218       3.03383332       0.17866937      -0.03868783       0.26985406      -0.74226529
V        7.63882661       1.74080964       4.66119821       0.22401344      -0.64964792       0.14370252
V        6.07238959       3.15991337       6.10934522       0.18916830       0.20292950      -0.03475224
Cr       7.64362482       4.70346010       4.56960884       0.17616632      -0.40628320       0.36241230
Cr       4.60725127       4.64322844       4.64744333       0.23974770      -0.01977110      -0.36023129
V        4.69235835       1.63045079       4.64062235      -0.47069947      -0.08962739      -0.23536131
V        6.12517932       0.16083414       6.14567050      -0.02249125      -0.28372874      -0.16885494
V        6.18592843       0.03461457       9.20806729      -0.20067602       0.26033203      -0.31201050
V        4.65127250       4.71104315      10.78327280      -0.70661699      -0.00015184      -0.85645687
Ti       7.53162894       1.54971855       7.61253053       1.16094605      -0.03019936      -0.15976805
V        7.70226648       1.60232952      10.63800933      -0.06716669      -0.45099652      -0.02603820
V        5.94630955       2.80499631       8.93181266      -0.34720181       0.45736300       0.13315015
Cr       7.08247879       4.27338989      10.10700735       0.43118762      -0.37569719       0.41132473
V        4.71988691       1.59541444      10.71402803      -0.55886785       0.05101520       0.06849468
V        7.60295292       4.63654858       7.59553922       0.33912771      -0.10549721      -0.31808309
Cr       4.57294876       4.72788393       7.66495334       0.07568992      -0.63458670      -0.42083452
V        8.44308198       5.41987998      11.39716151      -0.60199168      -0.78846703      -0.03709646
Cr       6.19265533       0.05066195      12.18698462      -0.11559591       0.58186782      -0.11723473
Ti       7.70024370       1.58384229      13.70641798      -0.08497016       0.48898807      -0.23145881
Cr       4.60173803       4.61089226      13.65053294       0.19673503       0.02069819       0.45055840
V        4.62863623       1.62849388      13.63152827       0.23184581      -0.12327891       0.14271754
V        7.67995951       4.55734987      13.68252102      -0.13233864       0.38334763       0.75061219
V        6.21338172       3.17500420      12.19451123      -0.29975177      -0.50467037       0.23487786
Cr       4.63667089       7.62975705       1.78184845       0.26681468       0.26167138      -1.09056485
Cr       6.10288175       6.01912004       0.09605359       0.17081276       0.53434300      -0.08044325
Cr       7.69509739       7.59256621       1.64240868      -0.00891712       0.49538828      -0.30624080
V        6.16002750       9.26316203       0.01739850      -0.00240219      -0.42550615       0.76249500
V        7.67752277      10.73275047       1.70501123       0.01775890      -0.34186231      -0.50847438
Cr       6.18975759       9.16037683       3.10615459      -0.19499223       0.25574014       0.29541568
V        4.75941100      10.78534262       1.64010366      -0.42287666      -0.43901344      -0.28892879
V        6.24537920       6.22702369       3.06302714      -0.51499569      -0.53190903       0.14570733
V        7.66801102      10.62267387       4.67957253      -0.21430593       0.16507638      -0.26590667
V        4.58055063      10.74629835       4.64636139       0.43461892      -0.53964268      -0.12099408
Cr       6.18871327       9.17032136       6.12603546      -0.29900133      -0.06040721      -0.10025262
V        4.58573458       7.72118648       4.60990440       0.51856850      -0.36677631       0.07427142
Ti       7.68631008       7.69168219       4.58764446       0.04453164      -0.41001946       0.28375663
V        6.24258495       6.06040348       6.15000770      -0.73653922       0.59058581      -0.35664615
V        7.73487549       7.74049223      10.71224046      -0.43892705       0.10152776      -0.19237785
V        6.21394621       9.19408662       9.08802735      -0.09491291      -0.17139175       0.43971294
V        7.75497153      10.70490203      10.70913574      -0.29148120      -0.42632953      -0.33857956
V        7.55334319      10.66604593       7.61155208       0.79687644      -0.17898123       0.26919892
Cr       4.72737588       7.70049773      10.59021538      -0.26342258       0.05103057       0.37955954
Cr       6.08404642       6.21463302       9.06993527       0.27124571       0.66345542       0.11605863
Ti       4.71723378      10.62559043      10.67310212      -0.42866492       0.27993713      -0.04132571
Cr       4.64263572      10.66087139       7.58038252       0.06476353      -0.10223770       0.25966376
Cr       4.68324175       7.74150832       7.59136195      -0.12987459      -0.65617537      -0.10831778
V        7.71469478       7.60213441       7.56995817      -0.32780682       0.27829326       0.67451795
V        6.08944676       6.20828244      12.25745245      -0.16846634      -0.21079111      -0.61238153
V        4.66849902       7.77508638      13.71300377      -0.00919711      -0.55296009       0.20732502
V        7.66864137      10.69662276      13.67951037       0.22093420      -0.16466507       0.01312746
V        6.19304107       9.23279218      12.12884159      -0.01895721      -0.43729018       0.52813850
V        7.57329811       7.57196213      13.73595991      -0.04106484       0.52607491      -0.07710788
V        4.64541115      10.69445886      13.71996587       0.12559811      -0.02796253      -0.23631542
121
Lattice="9.04215026885 0.0 0.0 0.0 12.0474946843 0.0 0.0 0.0 15.109870339" Properties=species:S:1:pos:R:3:force:R:3:forces:R:3 config_type=sia_aa parent_id=99999999 generation=9 step=0 variance=0.151335671544075 loss=0.151335671544075 energy=-1060.0789552950453 pbc="T T T"
V        1.61990416       1.74125183       1.54009390       0.12336864      -0.55775086       0.26652868       0.00185064      -0.75967997      -0.23688088
Cr       0.17520995       3.11677647       3.15477633      -0.30471008       0.36888619      -0.26157671      -0.48863134       0.63333619      -0.35133821
Cr       3.15390158       3.06696916       0.04316254      -0.14483782       0.42276353       0.19493684      -0.15901151       0.55076265       0.20549510
Ti       1.64714110       4.68753195       1.70099390       0.01524858      -0.46384834      -0.57507944      -0.22489771      -0.08933183      -0.74600595
Cr       3.17096806       3.09415913       3.16234064      -0.08509405       0.23608282      -0.31136076      -0.17200461       0.24009353      -0.28880376
V        0.09761348       3.20499778       0.12866731       0.28828765      -0.55882773      -0.26871112       0.24557476      -0.55279648      -0.03169265
Ti       3.06103253       0.05249309       3.07193685       0.37805461       0.63142304       0.02508166       0.37298879       0.23370883       0.03324004
Cr       0.11819404       0.20199621       3.19589043       0.15998867      -0.27372486      -0.29410120      -0.21911478      -0.85487020      -0.39882335
V        3.17539930       0.17951046       0.10876603      -0.35674453      -0.13707954      -0.19979723      -0.01307966      -0.42745265      -0.08189897
V        0.08271692       0.15694854       0.01865826       0.39279499      -0.14148923       0.51735942       0.13130602      -0.49291706       0.88249910
V        3.06084442       0.06819048       6.06955767       0.13511636       0.32327942       0.30897587       0.22459190       0.15289889       0.12151571
V        0.16800229       3.13391829       6.15819311      -0.38956597      -0.09577405      -0.11714668      -0.59302586      -0.11300249      -0.24251172
V        3.13254476       3.06418443       6.05578423      -0.22865876       0.48156623       0.44052387      -0.28040648       0.36011431       0.24956302
Cr       1.60274351       1.64551342       4.65894032       0.11349473      -0.20055457      -0.22876322       0.44150767      -0.11998445       0.52063507
V        1.66825318       4.66159344       4.65354919      -0.18164018      -0.13909514      -0.05803332      -0.22955334      -0.24030712       0.11254152
Cr       0.15216537      -0.04439360       6.18467712      -0.50040781       0.98748333      -0.12993435      -0.64733404       0.80573618      -0.44188866
V        1.65012348       1.62871969      10.62239170       0.09284277       0.09780789      -0.04371548       0.27222300       0.42549759      -0.01572279
Ti       1.71854031       4.69474792      10.69530582       0.24891965      -0.13255286      -0.27944305       0.36277819      -0.22253458      -0.13814817
V        3.15390158       3.12181926       9.14141941      -0.24226432       0.20586085       0.21024379      -0.38187215       0.05005520       0.39788985
Cr       0.16009277       0.01617571       9.08902454      -0.24410837       0.80602365       0.36256282      -0.30355796       0.62109149       0.63525915
Ti       1.57260883       4.59503937       7.58189726       0.22888302       0.12901640       0.34742727       0.54977477      -0.08066328       0.37403435
Ti       3.11043525       0.18254182       9.03927422       0.21686370      -0.44867982       0.95057070      -0.11887604      -0.37719709       1.12601984
V        0.09973504       3.13351369       9.14413834       0.16815693      -0.09169343       0.01600119       0.13877250      -0.10210957       0.05360268
Ti       1.61060882       1.59121835       7.66238499      -0.07467103       0.04581711      -0.30137985       0.30015025       0.36105734      -0.38538522
Cr       1.63961446       1.55843055      13.63350391       0.21551379       0.48192373       0.26571851      -0.06167140       0.58376348       0.40701663
V        0.11860236       3.03705096      12.12564278       0.28768070       0.04952769       0.07265712      -0.05928178       0.13992369      -0.06319359
Ti       1.68292999       4.68201876      13.73624229      -0.07634035      -0.58774094      -0.14681849      -0.18269575      -0.54993558      -0.23876733
Cr       0.21511038       0.14997230      12.12554836      -0.31214203      -0.21112271       0.16380953      -0.77174306      -0.33107877      -0.49153459
Ti       3.11658835       3.21132946      12.16873264       0.15023462      -0.36455990       0.02632671       0.08427273      -0.54259843      -0.28020358
Cr       4.58069181       1.53490055       7.59321547      -0.13825882       0.06305176      -0.06047647       0.07393028       0.32116151      -0.14769562
Ti       3.14910316       0.07797083      12.15019798       0.13594777       0.06708415       0.01240439       0.45660290       0.21553622      -0.27170318
V        1.64292610       7.69122124       1.71221793      -0.31573477      -0.43787051      -0.11670711      -0.32585073      -0.33357856      -0.22618362
Ti       0.12906905       9.15358448       0.15641508      -0.41727118       0.08700563       0.07074955      -0.38119301       0.06023336       0.10817834
V        1.55869401      10.70800686       1.58550751       0.12451573      -0.14523481       0.18908651       0.36795801      -0.14991243      -0.03534403
Ti       3.15081549       9.23126793       0.24512272       0.30973414       0.10444106      -0.38234872       0.17287534       0.09741056      -0.36080664
Ti       3.18223906       6.12157583       0.16938530       0.21114748      -0.14190603       0.18283750      -0.22564670      -0.13369836       0.19637039
Cr       3.10757518       6.19129133       3.10212779       0.24864179      -0.36286768       0.51937467      -0.08504533      -0.35945696       0.47435141
V        0.12394155       6.10397291       3.20192122       0.02726826       0.40408804      -0.41071015       0.46603245       0.34610432      -0.43136892
V        3.16474915       9.16856194       3.09381104      -0.19989548       0.23965565       0.39695800      -0.39723694       0.45404929       0.67912090
V        0.11259049       9.16557026       3.17909670       0.18811493      -0.03344905      -0.22755072       0.36411279       0.40705979      -0.02026815
Ti       0.05968278       6.03720284       0.05898713       0.39416593       0.51259765       0.86201062       0.34546471       0.40813595       0.93238747
Cr       0.11958082       6.16475964       6.17386723      -0.04190235      -0.08556814      -0.30348755       0.17587332       0.02796559      -0.17451523
V        3.08778024       6.17412090       6.10990047       0.20860918      -0.05229005       0.17437783       0.02613666       0.26519787       0.08635309
Cr       3.16322517       9.18095303       6.11527252      -0.19956182       0.02006404       0.05763686      -0.32684374      -0.13699812      -0.06832144
V        1.64852405       7.60734653       4.68040037      -0.03611526       0.43978534      -0.11759395      -0.22539568       0.43952429      -0.11518274
V        1.63978374      10.62389660       4.60271645      -0.14714380       0.03495247       0.16214488       0.12214848      -0.25092286       0.09797691
V        0.07916784       9.13054371       6.20000315       0.35920676       0.03519844      -0.36619116       0.37166390       0.07383259      -0.38533863
Cr       1.62964165       7.78069353      10.57713795       0.37468230      -0.84800609      -0.05239464       0.45079812      -1.12643290      -0.11969976
V        1.67164016      10.65936565      10.60084629       0.19461945       0.13702701       0.51475732       0.56128746       0.00115926       0.25408494
V        3.27171159       9.11217880       9.19362545      -0.60058442       0.52209752      -0.36571525      -0.75269115       0.62358242      -0.58375382
Cr       1.63306630      10.64920521       7.68457890       0.34446019      -0.21103680      -0.27389820       0.50126481      -0.47275662      -0.21261911
Cr       0.17306864       9.22754192       9.20929050      -0.42468140      -0.45623039      -0.31589002      -0.69614863      -0.28876889      -0.42492414
Cr       0.08997868       6.10320187       9.14143848       0.26157478       0.32109079      -0.72278924      -0.12348734       0.43862051      -0.80965871
V        1.60513318       7.70669794       7.69091082       0.21425658      -0.29311720      -0.27242643       0.44255304      -0.35317910      -0.38844883
V        3.12059617       6.18078232       9.01607323       0.13114898      -0.07698032       0.73799726      -0.13427322       0.03390370       0.63486654
Ti       1.84957850       7.80368757      13.97361279       0.07904385       0.27709667       0.22855053       0.04316643       0.03154520       0.63661349
Ti       0.11838785       9.12013817      12.20758915       0.12510576       1.01786707      -0.07278165      -0.41171488       0.91495770      -0.11683643
Cr       1.54673612      10.61044312      13.67875767       0.43598145       0.45394227       0.10056438       0.57118583       0.47600397       0.57978499
Cr       3.08331132       9.15410137      12.16976738       0.70566422       0.22470573      -0.21984451       0.84189749       0.49605340      -0.18868975
Cr       0.64571685       6.60821819      12.62117577       0.04506623       0.36969481       0.03009417      -0.44379768      -0.08629163      -0.21607308
V        3.19491196       6.24273539      12.17541218       0.39725823      -0.16635280       0.15196626       0.54065394      -0.11100620       0.16649590
Ti       7.65022945       1.56442368       1.62098610       0.38612614       0.56528880       0.21656025       0.06817576       0.86828852      -0.25072676
Ti       6.29385996       0.20476128       0.06084188      -0.88431171      -0.58113194       0.15639659      -0.87365216      -0.97674006       0.08975753
V        7.65149021       4.67086983       1.52568984       0.02175996      -0.47104544       0.72155284       0.25428218      -0.54959404       0.76465487
Ti       6.18817711       3.05878401       3.13881993      -0.21428843       0.57691073      -0.30100857       0.14596123       0.49714702      -0.17314911
Ti       4.65712452       4.51196432       1.55211771      -0.17319122       0.54314502       0.39128033       0.16285801       0.41949183       0.50064826
Cr       4.71173954       1.56927836       1.64821362      -0.37853052       0.23090911      -0.15344603      -0.16554290       0.03838058      -0.16445647
Ti       6.15695095       0.14792037       3.22751164       0.22981768      -0.16057531      -0.49639897       0.44074735      -0.50904727      -0.19676635
V        6.15693235       3.03383327       0.17866936      -0.03868783       0.26985406      -0.74226529       0.33726567       0.56193686      -0.72786939
V        7.63882685       1.74080968       4.66119814       0.22401344      -0.64964792       0.14370252      -0.15178989      -0.37338519       0.47931537
V        6.07238960       3.15991330       6.10934544       0.18916830       0.20292950      -0.03475224       0.47411346      -0.23992160      -0.12375447
Cr       7.64362478       4.70346022       4.56960869       0.17616632      -0.40628320       0.36241230      -0.08401889      -0.32193258       0.33704466
Cr       4.60725117       4.64322853       4.64744329       0.23974770      -0.01977110      -0.36023129       0.63912666       0.16229986       0.12148222
V        4.69235849       1.63045084       4.64062214      -0.47069947      -0.08962739      -0.23536131      -0.50101018       0.12898704       0.17453885
V        6.12517929       0.16083413       6.14567041      -0.02249125      -0.28372874      -0.16885494       0.20541321      -0.56142235      -0.63303447
V        6.18592834       0.03461457       9.20806694      -0.20067602       0.26033203      -0.31201050       0.00753927       0.23934506      -0.17175023
V        4.65127230       4.71104336      10.78327274      -0.70661699      -0.00015184      -0.85645687      -0.84329402      -0.06331939      -0.53402466
Ti       7.53162909       1.54971850       7.61253071       1.16094605      -0.03019936      -0.15976805       0.70963240       0.21462175      -0.09791249
V        7.70226669       1.60232949      10.63800907      -0.06716669      -0.45099652      -0.02603820      -0.28758451      -0.15100816      -0.17314319
V        5.94630957       2.80499625       8.93181229      -0.34720181       0.45736300       0.13315015       0.03754712       0.82003373       0.37266171
Cr       7.08247900       4.27338982      10.10700703       0.43118762      -0.37569719       0.41132473       0.60120827      -0.25329077       0.58073151
V        4.71988678       1.59541440      10.71402836      -0.55886785       0.05101520       0.06849468      -0.61134148       0.08015316      -0.29004014
V        7.60295296       4.63654852       7.59553909       0.33912771      -0.10549721      -0.31808309       0.02419071      -0.54917002      -0.41788030
Cr       4.57294893       4.72788382       7.66495323       0.07568992      -0.63458670      -0.42083452       0.09566082      -0.72157449      -0.58908200
V        8.44308186       5.41987991      11.39716148      -0.60199168      -0.78846703      -0.03709646      -0.47946128      -0.77596128       0.02038751
Cr       6.19265556       0.05066195      12.18698502      -0.11559591       0.58186782      -0.11723473       0.11353515       0.50005674      -0.00476658
Ti       7.70024347       1.58384228      13.70641804      -0.08497016       0.48898807      -0.23145881       0.19215874       0.96141160       0.00965828
Cr       4.60173798       4.61089230      13.65053272       0.19673503       0.02069819       0.45055840       0.21723098      -0.04349639       0.10864437
V        4.62863636       1.62849391      13.63152790       0.23184581      -0.12327891       0.14271754       0.20359449      -0.03303809       0.34172076
V        7.67995930       4.55734968      13.68252087      -0.13233864       0.38334763       0.75061219       0.00683172       0.01374322       0.49527091
V        6.21338177       3.17500424      12.19451141      -0.29975177      -0.50467037       0.23487786      -0.22177915      -0.66066307       0.16733435
Cr       4.63667107       7.62975693       1.78184843       0.26681468       0.26167138      -1.09056485       0.30230579       0.50030243      -1.20877600
Cr       6.10288191       6.01912022       0.09605359       0.17081276       0.53434300      -0.08044325       0.22598396       0.41921458      -0.10812103
Cr       7.69509745       7.59256601       1.64240873      -0.00891712       0.49538828      -0.30624080       0.08557314       0.44021302      -0.23402071
V        6.16002750       9.26316166       0.01739850      -0.00240219      -0.42550615       0.76249500       0.13919118       0.03315946       0.48131043
V        7.67752266      10.73275089       1.70501125       0.01775890      -0.34186231      -0.50847438       0.00830892      -0.36062074      -0.63334000
Cr       6.18975782       9.16037655       3.10615468      -0.19499223       0.25574014       0.29541568      -0.17712097       0.89479488       0.47574395
V        4.75941086      10.78534222       1.64010370      -0.42287666      -0.43901344      -0.28892879      -0.68759573      -0.44884440      -0.41814607
V        6.24537897       6.22702360       3.06302714      -0.51499569      -0.53190903       0.14570733      -0.59768391      -0.85355711       0.42242393
V        7.66801119      10.62267399       4.67957258      -0.21430593       0.16507638      -0.26590667      -0.23626396       0.15928015      -0.06030596
V        4.58055067      10.74629879       4.64636135       0.43461892      -0.53964268      -0.12099408       0.28841588      -0.32527846      -0.01334431
Cr       6.18871307       9.17032146       6.12603569      -0.29900133      -0.06040721      -0.10025262      -0.24771020      -0.01309333      -0.28641146
V        4.58573437       7.72118664       4.60990429       0.51856850      -0.36677631       0.07427142       0.50348872      -0.39125520       0.25013527
Ti       7.68631029       7.69168234       4.58764458       0.04453164      -0.41001946       0.28375663       0.14518201      -0.49652073       0.17999125
V        6.24258518       6.06040335       6.15000772      -0.73653922       0.59058581      -0.35664615      -0.63144249       0.83526039      -0.24561563
V        7.73487568       7.74049234      10.71224022      -0.43892705       0.10152776      -0.19237785      -0.52409405       0.08414863      -0.11073383
V        6.21394634       9.19408703       9.08802700      -0.09491291      -0.17139175       0.43971294       0.25161743      -0.08585781       0.28118774
V        7.75497150      10.70490170      10.70913601      -0.29148120      -0.42632953      -0.33857956      -0.68772173      -0.48459339      -0.46775970
V        7.55334330      10.66604614       7.61155224       0.79687644      -0.17898123       0.26919892       0.30013302      -0.23920703       0.37584862
Cr       4.72737598       7.70049763      10.59021568      -0.26342258       0.05103057       0.37955954      -0.04532640      -0.06202064       0.20735264
Cr       6.08404636       6.21463299       9.06993484       0.27124571       0.66345542       0.11605863       0.44179326       0.69415760      -0.04692330
Ti       4.71723366      10.62559032      10.67310238      -0.42866492       0.27993713      -0.04132571      -0.23238252       0.13827348      -0.36576110
Cr       4.64263582      10.66087151       7.58038235       0.06476353      -0.10223770       0.25966376       0.11344358       0.07209153       0.43652785
Cr       4.68324184       7.74150848       7.59136200      -0.12987459      -0.65617537      -0.10831778      -0.00469185      -0.70115107       0.07747150
V        7.71469498       7.60213423       7.56995821      -0.32780682       0.27829326       0.67451795      -0.41923508       0.34464133       0.56784105
V        6.08944654       6.20828247      12.25745201      -0.16846634      -0.21079111      -0.61238153       0.01201877      -0.20404509      -0.49409387
V        4.66849899       7.77508640      13.71300411      -0.00919711      -0.55296009       0.20732502      -0.03222535      -0.41836163      -0.05609387
V        7.66864157      10.69662285      13.67951012       0.22093420      -0.16466507       0.01312746       0.17754386      -0.42658061       0.32240340
V        6.19304085       9.23279190      12.12884140      -0.01895721      -0.43729018       0.52813850       0.05336224      -0.20021944       0.67690891
V        7.57329798       7.57196236      13.73596001      -0.04106484       0.52607491      -0.07710788       0.11532705       0.78097963      -0.33557791
V        4.64541101      10.69445896      13.71996593       0.12559811      -0.02796253      -0.23631542       0.05689192      -0.03825808       0.07871875
121
Lattice="9.04215026885 0.0 0.0 0.0 12.0474946843 0.0 0.0 0.0 15.109870339" Properties=species:S:1:pos:R:3:force:R:3:forces:R:3 config_type=sia_aa parent_id=99999999 generation=9 step=11 variance=0.7410109639167786 loss=0.7410109639167786 energy=-1061.8989722232216 pbc="T T T"
V        1.63046181       1.75274515       1.54221690       0.12336864      -0.55775086       0.26652868      -0.04168266      -0.97097039      -0.17209634
Cr       0.19822429       3.14440274       3.15557051      -0.30471008       0.36888619      -0.26157671      -0.71786535       0.37480944      -0.31685665
Cr       3.13384414       3.13661361       0.05352015      -0.14483782       0.42276353       0.19493684      -0.04333719       0.02859640      -0.01516809
Ti       1.67251110       4.66883421       1.62211537       0.01524858      -0.46384834      -0.57507944      -0.36625871       0.10960098      -0.22135422
Cr       3.12940550       3.12590742       3.13933563      -0.08509405       0.23608282      -0.31136076       0.07821564       0.09775163      -0.04890470
V        0.13227406       3.10892081       0.13518408       0.28828765      -0.55882773      -0.26871112      -0.03023238       0.15739490      -0.03490158
Ti       3.13564658       0.08657181       3.09337783       0.37805461       0.63142304       0.02508166      -0.06534139       0.01150844       0.00362070
Cr       0.09005466       0.18356514       3.18038201       0.15998867      -0.27372486      -0.29410120       0.05110096      -0.62061751      -0.08279695
V        3.18724132       0.11843239       0.09926745      -0.35674453      -0.13707954      -0.19979723      -0.07547300       0.02470496      -0.03526147
V        0.04042212       0.14435332       0.10090280       0.39279499      -0.14148923       0.51735942       0.33928174      -0.29765347       0.32231647
V        3.09449124       0.07619577       6.09225845       0.13511636       0.32327942       0.30897587       0.03914332       0.05109915      -0.01495483
V        0.15799192       3.16179228       6.16561460      -0.38956597      -0.09577405      -0.11714668      -0.61745667      -0.34755763      -0.32160056
V        3.06856680       3.05054879       6.10271025      -0.22865876       0.48156623       0.44052387       0.10136805       0.48794037      -0.16155232
Cr       1.60469782       1.65939844       4.63314867       0.11349473      -0.20055457      -0.22876322       0.35490853      -0.26236081       0.65175462
V        1.63920510       4.65219736       4.68205023      -0.18164018      -0.13909514      -0.05803332      -0.05045800      -0.07444744      -0.02068332
Cr       0.08950739       0.00668659       6.20873308      -0.50040781       0.98748333      -0.12993435      -0.07459102       0.32810712      -0.55837834
V        1.68026912       1.66097212      10.63142014       0.09284277       0.09780789      -0.04371548      -0.04944208       0.03855334      -0.00470699
Ti       1.75403023       4.66675663      10.67110920       0.24891965      -0.13255286      -0.27944305      -0.05210684      -0.07452928       0.06095180
V        3.08254051       3.10843420       9.18360996      -0.24226432       0.20586085       0.21024379       0.02390994      -0.02022065      -0.06156186
Cr       0.14775312      -0.01059303       9.12812138      -0.24410837       0.80602365       0.36256282       0.00494693       0.66884398       0.38521919
Ti       1.58839643       4.53694153       7.57284927       0.22888302       0.12901640       0.34742727       0.38725275       0.48183700       0.56092715
Ti       3.07508993       0.13589934       9.05446815       0.21686370      -0.44867982       0.95057070       0.19273174      -0.09029122       0.97399533
V        0.12029040       3.08775854       9.15146542       0.16815693      -0.09169343       0.01600119      -0.03456783       0.06396695       0.02604339
Ti       1.63087642       1.62743843       7.62285137      -0.07467103       0.04581711      -0.30137985       0.04155603      -0.04082448       0.05275755
Cr       1.63427055       1.61825716      13.61537552       0.21551379       0.48192373       0.26571851      -0.10119759       0.05501310       0.56722713
V        0.11075363       3.06152821      12.12468338       0.28768070       0.04952769       0.07265712      -0.17192540      -0.09131940      -0.01094159
Ti       1.66792953       4.63956976      13.71415710      -0.07634035      -0.58774094      -0.14681849      -0.18271506      -0.26296747      -0.18972728
Cr       0.17038843       0.10949223      12.14507294      -0.31214203      -0.21112271       0.16380953      -0.53771031      -0.02140312      -0.51858705
Ti       3.13184023       3.12003279      12.14279747       0.15023462      -0.36455990       0.02632671       0.13228080       0.03446483      -0.16456263
Cr       4.58332825       1.55954933       7.57342005      -0.13825882       0.06305176      -0.06047647      -0.01643465       0.12386845       0.01895565
Ti       3.23068380       0.14202446      12.13767147       0.13594777       0.06708415       0.01240439      -0.03537421      -0.05091006      -0.03687838
V        1.60608482       7.65165710       1.69493198      -0.31573477      -0.43787051      -0.11670711       0.01913324       0.05914852      -0.08564363
Ti       0.06587896       9.15660095       0.14483391      -0.41727118       0.08700563       0.07074955       0.03885037       0.01813944       0.09661721
V        1.49436295      10.70918083       1.58572555       0.12451573      -0.14523481       0.18908651       0.91089296      -0.11969304       0.03668053
Ti       3.16693377       9.25018406       0.20253234       0.30973414       0.10444106      -0.38234872      -0.00334703      -0.02105607      -0.03780776
Ti       3.13884354       6.09457493       0.18509851       0.21114748      -0.14190603       0.18283750       0.07856877      -0.01095654      -0.03325487
Cr       3.10395217       6.14675808       3.17487478       0.24864179      -0.36286768       0.51937467       0.07103645       0.04463644      -0.10893353
V        0.18179582       6.13411236       3.13026547       0.02726826       0.40408804      -0.41071015      -0.05444360       0.03533190       0.09684789
V        3.14556885       9.21372414       3.15660644      -0.19989548       0.23965565       0.39695800      -0.16472349      -0.04899240       0.07629640
V        0.16276935       9.21325111       3.17236090       0.18811493      -0.03344905      -0.22755072      -0.02827130       0.00006703       0.05176599
Ti       0.11691034       6.07891369       0.08251081       0.39416593       0.51259765       0.86201062       0.05865911       0.11062209       0.86417830
Cr       0.13083561       6.17367411       6.15653753      -0.04190235      -0.08556814      -0.30348755      -0.03405000      -0.03584997       0.06155545
V        3.09997797       6.19857407       6.10721064       0.20860918      -0.05229005       0.17437783      -0.00483268      -0.05781960       0.01350309
Cr       3.14357591       9.16099739       6.11797428      -0.19956182       0.02006404       0.05763686      -0.01146408      -0.05327190      -0.07345080
V        1.61018324       7.64410353       4.70091677      -0.03611526       0.43978534      -0.11759395       0.09726295       0.16525781      -0.36982995
V        1.66716981      10.62287712       4.60955667      -0.14714380       0.03495247       0.16214488      -0.06213759       0.11527558       0.14488767
V        0.11313844       9.13900852       6.16326904       0.35920676       0.03519844      -0.36619116      -0.01521351       0.00957337      -0.04394887
Cr       1.59073973       7.69768715      10.54794216       0.37468230      -0.84800609      -0.05239464       0.68961334      -0.47622937       0.10351482
V        1.74507689      10.63270760      10.63756847       0.19461945       0.13702701       0.51475732      -0.01789212       0.03820457      -0.02758774
V        3.23638177       9.14696884       9.16653347      -0.60058442       0.52209752      -0.36571525      -0.56094807       0.16448456      -0.40244746
Cr       1.66585302      10.60162544       7.67188025       0.34446019      -0.21103680      -0.27389820       0.14532316      -0.16123027      -0.22655205
Cr       0.13010991       9.19802666       9.20356178      -0.42468140      -0.45623039      -0.31589002      -0.20162126      -0.17669469      -0.34612891
Cr       0.11983418       6.19657564       9.16883850       0.26157478       0.32109079      -0.72278924      -0.43560451      -0.26818547      -1.06250715
V        1.64773822       7.66892862       7.64385605       0.21425658      -0.29311720      -0.27242643       0.17014721      -0.14277159       0.07974228
V        3.12731051       6.16137886       9.09837246       0.13114898      -0.07698032       0.73799726      -0.06894869       0.03116033      -0.02735191
Ti       1.85261738       7.81921101      14.04119301       0.07904385       0.27709667       0.22855053       0.00343933      -0.00760697      -0.16035801
Ti       0.07720521       9.14574432      12.16814613       0.12510576       1.01786707      -0.07278165      -0.06035949       0.67449415       0.07917923
Cr       1.51831329      10.66481495      13.70760536       0.43598145       0.45394227       0.10056438       0.77816141       0.04578113       0.31065780
Cr       3.17077351       9.18585587      12.09531975       0.70566422       0.22470573      -0.21984451       0.05628528       0.03382370       0.50784433
Cr       0.63411617       6.60108566      12.60690594       0.04506623       0.36969481       0.03009417      -0.09827597       0.05663669       0.10098971
V        3.24424791       6.22014809      12.20333195       0.39725823      -0.16635280       0.15196626       0.05885306       0.00094080       0.03617677
Ti       7.65732670       1.56764841       1.63146615       0.38612614       0.56528880       0.21656025       0.04616590       0.88049817      -0.23384356
Ti       6.31380844       0.24940725       0.05117864      -0.88431171      -0.58113194       0.15639659      -1.10257876      -1.43436956       0.12257972
V        7.67874241       4.59109497       1.59733593       0.02175996      -0.47104544       0.72155284       0.13867250       0.09198107       0.25713739
Ti       6.21502876       3.12034631       3.10879397      -0.21428843       0.57691073      -0.30100857      -0.04191723      -0.09681933       0.07422946
Ti       4.60675859       4.45918894       1.55065453      -0.17319122       0.54314502       0.39128033       0.59811515       0.90783060       0.45007914
Cr       4.69281292       1.57384896       1.62808526      -0.37853052       0.23090911      -0.15344603      -0.00559326       0.00998581       0.01033982
Ti       6.20704985       0.07566295       3.20494342       0.22981768      -0.16057531      -0.49639897      -0.06933026       0.00015852      -0.14573243
V        6.16612816       3.02576256       0.13516702      -0.03868783       0.26985406      -0.74226529       0.28713113       0.63474047      -0.36512122
V        7.59640980       1.66585207       4.73955250       0.22401344      -0.64964792       0.14370252       0.09036105       0.08841453      -0.24758074
V        6.13333416       3.15060258       6.09566164       0.18916830       0.20292950      -0.03475224       0.06447310      -0.38396513      -0.06939764
Cr       7.64924479       4.69311333       4.59879351       0.17616632      -0.40628320       0.36241230       0.03645089      -0.10228597       0.02451485
Cr       4.67540789       4.62304544       4.67523098       0.23974770      -0.01977110      -0.36023129       0.06864132       0.07242125      -0.00865866
V        4.63734388       1.64173901       4.64637613      -0.47069947      -0.08962739      -0.23536131       0.02783430       0.01047502      -0.00422676
V        6.13045168       0.16062531       6.09999895      -0.02249125      -0.28372874      -0.16885494       0.11714822      -0.69165993      -0.16556022
V        6.18534279       0.05981994       9.18518543      -0.20067602       0.26033203      -0.31201050       0.04100040      -0.02615635      -0.02913263
V        4.55603886       4.71006441      10.69926643      -0.70661699      -0.00015184      -0.85645687      -0.09646349      -0.15133598      -0.21938765
Ti       7.53394747       1.55893779       7.60024643       1.16094605      -0.03019936      -0.15976805       0.62056738       0.07509212       0.08334699
V        7.64428425       1.56961763      10.63373089      -0.06716669      -0.45099652      -0.02603820       0.00700267       0.03518369      -0.07771806
V        5.94855785       2.79298091       8.94290638      -0.34720181       0.45736300       0.13315015       0.09906241       1.09518123       0.21979445
Cr       7.07784510       4.25180006      10.13843822       0.43118762      -0.37569719       0.41132473       0.37586641      -0.19276431       0.05762580
V        4.72780418       1.60886788      10.66033173      -0.55886785       0.05101520       0.06849468      -0.90469074      -0.00915100      -0.16180883
V        7.60475254       4.55725527       7.55127907       0.33912771      -0.10549721      -0.31808309      -0.03194526       0.12279947       0.06375504
Cr       4.55516052       4.69426346       7.60274649       0.07568992      -0.63458670      -0.42083452       0.14811954      -0.48677391      -0.01823608
V        8.41082096       5.38767719      11.40031147      -0.60199168      -0.78846703      -0.03709646      -0.26658821      -0.51533526       0.15043578
Cr       6.14649010       0.08676466      12.18318272      -0.11559591       0.58186782      -0.11723473       0.49441886       0.25894040       0.23102227
Ti       7.67440748       1.62182808      13.72372913      -0.08497016       0.48898807      -0.23145881       0.42109317       0.65828276      -0.13094839
Cr       4.62583017       4.61741543      13.65742493       0.19673503       0.02069819       0.45055840       0.15014884      -0.03586889      -0.02964235
V        4.64411783       1.63963223      13.67605782       0.23184581      -0.12327891       0.14271754       0.03531119       0.00447713       0.02126769
V        7.70900154       4.57214594      13.75091076      -0.13233864       0.38334763       0.75061219      -0.04499837      -0.08085842       0.03210474
V        6.14722443       3.16548395      12.18696785      -0.29975177      -0.50467037       0.23487786       0.13547155      -0.52148426       0.25106466
Cr       4.69594383       7.65862846       1.69877636       0.26681468       0.26167138      -1.09056485      -0.18088192       0.37041745      -0.40920612
Cr       6.15994263       6.06706572       0.10768090       0.17081276       0.53434300      -0.08044325       0.08534511      -0.08770996       0.00968376
Cr       7.69441605       7.67058086       1.64938724      -0.00891712       0.49538828      -0.30624080       0.00219996      -0.08141862       0.00003320
V        6.16515064       9.25384235       0.09183239      -0.00240219      -0.42550615       0.76249500       0.04554188      -0.00328203      -0.11546193
V        7.69939137      10.72756767       1.64805043       0.01775890      -0.34186231      -0.50847438      -0.22899441      -0.45228216      -0.24450791
Cr       6.19030285       9.18647671       3.14725137      -0.19499223       0.25574014       0.29541568      -0.14552060       0.60057104       0.21563153
V        4.69974041      10.77361488       1.60799205      -0.42287666      -0.43901344      -0.28892879      -0.35308465      -0.40192053      -0.21430127
V        6.18866444       6.16439915       3.08507442      -0.51499569      -0.53190903       0.14570733      -0.11361942      -0.38843775       0.12945008
V        7.63699007      10.63610077       4.66943550      -0.21430593       0.16507638      -0.26590667       0.00424445       0.01198560       0.05431296
V        4.61911058      10.71170521       4.65431976       0.43461892      -0.53964268      -0.12099408       0.09310378      -0.06215493      -0.01234745
Cr       6.17123747       9.16223431       6.08442163      -0.29900133      -0.06040721      -0.10025262      -0.02983285       0.01523796       0.01134782
V        4.62275028       7.69567871       4.59873724       0.51856850      -0.36677631       0.07427142       0.19612586      -0.33802971       0.20514028
Ti       7.69663811       7.62908649       4.59571600       0.04453164      -0.41001946       0.28375663       0.04332419       0.01534487      -0.01023043
V        6.16730309       6.07184172       6.11478090      -0.73653922       0.59058581      -0.35664615      -0.04514566       0.76501298       0.02098673
V        7.62654305       7.73566914      10.71128464      -0.43892705       0.10152776      -0.19237785       0.08640824       0.04982066      -0.04353179
V        6.22076988       9.19051456       9.13059807      -0.09491291      -0.17139175       0.43971294       0.05710676       0.01775558      -0.04834564
V        7.73238850      10.69443798      10.68330574      -0.29148120      -0.42632953      -0.33857956      -0.67827976      -0.38298059      -0.20718180
V        7.59291506      10.63262844       7.64433908       0.79687644      -0.17898123       0.26919892       0.00735255       0.01873444       0.07030417
Cr       4.69141674       7.71180630      10.60405445      -0.26342258       0.05103057       0.37955954       0.04616413      -0.13075092      -0.02399830
Cr       6.12096596       6.27695465       9.05421352       0.27124571       0.66345542       0.11605863       0.12004766       0.09111027      -0.03859295
Ti       4.71174192      10.60250568      10.69466400      -0.42866492       0.27993713      -0.04132571      -0.15019339       0.49133486      -0.74876446
Cr       4.67686176      10.66998768       7.65674305       0.06476353      -0.10223770       0.25966376      -0.02384894       0.07116334      -0.02730878
Cr       4.70663643       7.71570921       7.54866648      -0.12987459      -0.65617537      -0.10831778      -0.25191084      -0.47439942       0.39294237
V        7.63586664       7.68395042       7.62830496      -0.32780682       0.27829326       0.67451795       0.07287449      -0.12015097      -0.01170108
V        6.06903601       6.16691685      12.18385410      -0.16846634      -0.21079111      -0.61238153       0.02484342      -0.06702919      -0.05174889
V        4.66870070       7.70472670      13.67867184      -0.00919711      -0.55296009       0.20732502      -0.00695532       0.00966138       0.01674847
V        7.65576553      10.61198235      13.73720360       0.22093420      -0.16466507       0.01312746       0.08184469       0.13545811      -0.04163673
V        6.18553114       9.27298069      12.09838772      -0.01895721      -0.43729018       0.52813850       0.01636803      -0.58965558       1.02247071
V        7.61651754       7.55977249      13.73461723      -0.04106484       0.52607491      -0.07710788      -0.10246798       0.78316963      -0.41287333
V        4.65280724      10.68731308      13.71020222       0.12559811      -0.02796253      -0.23631542       0.05227023      -0.01941797       0.08345523
121
Lattice="9.04215026885 0.0 0.0 0.0 12.0474946843 0.0 0.0 0.0 15.109870339" Properties=species:S:1:pos:R:3:force:R:3:forces:R:3 config_type=sia_aa parent_id=99999999 generation=9 step=22 variance=0.9709883332252502 loss=0.9709883332252502 energy=-1062.4839501601914 pbc="T T T"
V        1.63919103       1.71735311       1.52249980       0.12336864      -0.55775086       0.26652868      -0.07696730      -0.81055641       0.05955494
Cr       0.19671063       3.16058278       3.14560914      -0.30471008       0.36888619      -0.26157671      -0.59282672       0.09459602      -0.23364082
Cr       3.14189649       3.13968277       0.06219487      -0.14483782       0.42276353       0.19493684      -0.05108983       0.02929404      -0.08785145
Ti       1.62953341       4.67923117       1.58084655       0.01524858      -0.46384834      -0.57507944      -0.00093425      -0.04187816       0.07154919
Cr       3.14083123       3.14925528       3.14789057      -0.08509405       0.23608282      -0.31136076      -0.12781015      -0.06571402      -0.08910977
V        0.13207814       3.12461019       0.14150134       0.28828765      -0.55882773      -0.26871112      -0.03579461       0.08974615       0.01506900
Ti       3.12761283       0.09032145       3.10055256       0.37805461       0.63142304       0.02508166       0.01650785      -0.00221114      -0.00655319
Cr       0.11551484       0.14615142       3.16585660       0.15998867      -0.27372486      -0.29410120      -0.17559919      -0.22132736       0.02601354
V        3.18964577       0.11951196       0.10782641      -0.35674453      -0.13707954      -0.19979723      -0.01686531       0.04652242      -0.05732389
V        0.04115614       0.11010958       0.15445150       0.39279499      -0.14148923       0.51735942       0.28443390      -0.00420009      -0.04662332
V        3.10878992       0.09042811       6.10155916       0.13511636       0.32327942       0.30897587       0.04270237       0.02624429      -0.04729813
V        0.16556777       3.17447758       6.16151571      -0.38956597      -0.09577405      -0.11714668      -0.74420083      -0.46591902      -0.28797084
V        3.05845785       3.10554290       6.09860277      -0.22865876       0.48156623       0.44052387       0.18163781       0.11819293      -0.12934510
Cr       1.61718202       1.64534783       4.65766573       0.11349473      -0.20055457      -0.22876322       0.27394173      -0.05857664       0.39654136
V        1.62478971       4.65098715       4.68975782      -0.18164018      -0.13909514      -0.05803332       0.00314843       0.02034826      -0.06719057
Cr       0.10085155       0.01866295       6.18689728      -0.50040781       0.98748333      -0.12993435      -0.20468155       0.24975014      -0.30334479
V        1.65798664       1.67723560      10.62254810       0.09284277       0.09780789      -0.04371548       0.05922483      -0.07125747       0.03782339
Ti       1.73647809       4.65308046      10.70449448       0.24891965      -0.13255286      -0.27944305       0.04460186       0.01304384      -0.08670198
V        3.07344365       3.09226060       9.15934181      -0.24226432       0.20586085       0.21024379       0.00273499       0.00877256       0.08852316
Cr       0.14863324       0.03184475       9.14358330      -0.24410837       0.80602365       0.36256282       0.08934002       0.27909219       0.24100260
Ti       1.57273853       4.50944042       7.58305454       0.22888302       0.12901640       0.34742727       0.43913230       0.77646750       0.53884256
Ti       3.07354975       0.13450800       9.07276058       0.21686370      -0.44867982       0.95057070       0.21010081      -0.03595749       0.88702822
V        0.12699637       3.09248281       9.14995861       0.16815693      -0.09169343       0.01600119       0.02389312      -0.02864568       0.01669352
Ti       1.64130998       1.61780453       7.62956667      -0.07467103       0.04581711      -0.30137985      -0.00875434       0.03831221      -0.01681760
Cr       1.63062334       1.64516449      13.65216160       0.21551379       0.48192373       0.26571851      -0.10978349      -0.18746161       0.21944848
V        0.08331797       3.05549121      12.12224960       0.28768070       0.04952769       0.07265712       0.00774315      -0.10436615       0.02361808
Ti       1.64050448       4.59779024      13.69459534      -0.07634035      -0.58774094      -0.14681849      -0.03447309      -0.02697482      -0.15230751
Cr       0.11862715       0.12357722      12.10077858      -0.31214203      -0.21112271       0.16380953      -0.03704058      -0.00931224      -0.06885299
Ti       3.15901947       3.12309408      12.10951138       0.15023462      -0.36455990       0.02632671      -0.04429459      -0.04401091       0.05996994
Cr       4.58636999       1.58730721       7.56713581      -0.13825882       0.06305176      -0.06047647      -0.01711974       0.00648058       0.07695644
Ti       3.23472810       0.14108244      12.14662075       0.13594777       0.06708415       0.01240439       0.02871224      -0.00465370      -0.12518734
V        1.62475240       7.66358423       1.68233156      -0.31573477      -0.43787051      -0.11670711      -0.03415376       0.01992821      -0.03258080
Ti       0.08427493       9.14016819       0.15478683      -0.41727118       0.08700563       0.07074955      -0.05225478       0.11999186      -0.02428947
V        1.46381903      10.73856544       1.57769072       0.12451573      -0.14523481       0.18908651       1.16347647      -0.39090249       0.11233761
Ti       3.16505146       9.25786114       0.19120589       0.30973414       0.10444106      -0.38234872      -0.02429040      -0.04666915      -0.03461978
Ti       3.15745592       6.09216881       0.16194250       0.21114748      -0.14190603       0.18283750      -0.04056182      -0.02808046       0.00281909
Cr       3.10453939       6.13161469       3.16209793       0.24864179      -0.36286768       0.51937467       0.09265535       0.16947982      -0.14436504
V        0.19558755       6.14050341       3.12864637       0.02726826       0.40408804      -0.41071015      -0.16876042       0.04052448       0.14007524
V        3.11400461       9.22374439       3.17810321      -0.19989548       0.23965565       0.39695800       0.02335450      -0.04150146      -0.07317282
V        0.15521377       9.21406460       3.17442250       0.18811493      -0.03344905      -0.22755072      -0.03582427      -0.02109798       0.00659545
Ti       0.12940474       6.03321648       0.12509845       0.39416593       0.51259765       0.86201062      -0.01861266       0.52368617       0.45953971
Cr       0.13629222       6.18398190       6.16310024      -0.04190235      -0.08556814      -0.30348755       0.00500066      -0.04183785      -0.02772523
V        3.10681629       6.18192291       6.11342239       0.20860918      -0.05229005       0.17437783       0.00108353      -0.01773610      -0.00546846
Cr       3.15421271       9.15293121       6.11485529      -0.19956182       0.02006404       0.05763686       0.00385134      -0.11437752      -0.14824367
V        1.62180567       7.67219019       4.64126253      -0.03611526       0.43978534      -0.11759395      -0.00307544      -0.04332426      -0.00046395
V        1.65712798      10.64818382       4.65419531      -0.14714380       0.03495247       0.16214488       0.01051893      -0.05602817      -0.10692723
V        0.10739893       9.13156891       6.15231085       0.35920676       0.03519844      -0.36619116       0.03693117       0.03976474      -0.00126440
Cr       1.58024025       7.62116194      10.54454994       0.37468230      -0.84800609      -0.05239464       0.71033812       0.05171017       0.16692171
V        1.72992337      10.62905312      10.63324833       0.19461945       0.13702701       0.51475732      -0.00222956       0.02076112      -0.00726264
V        3.17565966       9.19485474       9.12041950      -0.60058442       0.52209752      -0.36571525      -0.15832639      -0.19748116       0.03365624
Cr       1.70687640      10.57414818       7.64280796       0.34446019      -0.21103680      -0.27389820      -0.21144508       0.08093099      -0.08157841
Cr       0.10512424       9.18038082       9.17887878      -0.42468140      -0.45623039      -0.31589002       0.05774495      -0.05353665      -0.16458109
Cr       0.10826734       6.21381140       9.17607689       0.26157478       0.32109079      -0.72278924      -0.44162008      -0.47362322      -1.05827212
V        1.67113090       7.64821959       7.65506363       0.21425658      -0.29311720      -0.27242643       0.02843381      -0.03448667      -0.03332315
V        3.12445760       6.14196110       9.08738708       0.13114898      -0.07698032       0.73799726      -0.00758133      -0.00221184      -0.00120480
Ti       1.84919310       7.79886627      14.04068565       0.07904385       0.27709667       0.22855053      -0.00429762       0.03724201      -0.08793147
Ti       0.01769977       9.17680645      12.17731762       0.12510576       1.01786707      -0.07278165       0.39341903       0.44689196      -0.00897600
Cr       1.56341875      10.65737820      13.71092987       0.43598145       0.45394227       0.10056438       0.32464194       0.18258917       0.23672967
Cr       3.18103123       9.17567062      12.15830517       0.70566422       0.22470573      -0.21984451       0.06561624       0.08971636      -0.02544972
Cr       0.62084925       6.59233189      12.60721779       0.04506623       0.36969481       0.03009417      -0.08292109      -0.03894619       0.11588754
V        3.26990938       6.21454620      12.21583748       0.39725823      -0.16635280       0.15196626      -0.11728032      -0.03172029      -0.05176746
Ti       7.65757608       1.56319344       1.61272168       0.38612614       0.56528880       0.21656025       0.04446289       0.79698157      -0.13158613
Ti       6.27466154       0.24357249       0.03771856      -0.88431171      -0.58113194       0.15639659      -0.64306772      -1.21732020       0.07109750
V        7.69446850       4.60175276       1.65005422       0.02175996      -0.47104544       0.72155284       0.00941546       0.00382204      -0.01151650
Ti       6.21198177       3.10628891       3.11486006      -0.21428843       0.57691073      -0.30100857      -0.01221383      -0.06296457       0.05973557
Ti       4.58334684       4.43416977       1.56203711      -0.17319122       0.54314502       0.39128033       0.80818176       1.07941794       0.32342571
Cr       4.69160223       1.56745970       1.62647700      -0.37853052       0.23090911      -0.15344603      -0.04559908       0.00772559      -0.02281083
Ti       6.18048429       0.08475766       3.17386699       0.22981768      -0.16057531      -0.49639897       0.10762419      -0.05998166       0.00816302
V        6.17445803       3.01601863       0.10042721      -0.03868783       0.26985406      -0.74226529       0.22892110       0.69211257      -0.12605980
V        7.58679581       1.66598344       4.70431423       0.22401344      -0.64964792       0.14370252       0.16052926       0.02323518      -0.08828200
V        6.15621424       3.09425569       6.08564997       0.18916830       0.20292950      -0.03475224      -0.00329313      -0.03579592       0.00062819
Cr       7.64698124       4.67811966       4.62001276       0.17616632      -0.40628320       0.36241230       0.01782990       0.02821447      -0.01634914
Cr       4.69417572       4.64332581       4.69768906       0.23974770      -0.01977110      -0.36023129       0.00646078      -0.06234675      -0.08053633
V        4.63785791       1.64582443       4.64645386      -0.47069947      -0.08962739      -0.23536131       0.01361174       0.01231029      -0.02942261
V        6.10784578       0.16649359       6.09587145      -0.02249125      -0.28372874      -0.16885494       0.33555564      -0.70334435      -0.18203950
V        6.19143248       0.06466568       9.18523598      -0.20067602       0.26033203      -0.31201050       0.00715950      -0.01269190       0.01083397
V        4.54502773       4.68054533      10.63252068      -0.70661699      -0.00015184      -0.85645687       0.00793776       0.01548783       0.04462032
Ti       7.53345633       1.54900491       7.64153862       1.16094605      -0.03019936      -0.15976805       0.63165176       0.19277915      -0.28707922
V        7.63984394       1.58434153      10.63120174      -0.06716669      -0.45099652      -0.02603820      -0.00120381      -0.01645039      -0.03179907
V        5.95792818       2.79607320       8.97858429      -0.34720181       0.45736300       0.13315015       0.09035166       1.04653537      -0.05579920
Cr       7.12059069       4.21537447      10.14541149       0.43118762      -0.37569719       0.41132473       0.02780322      -0.02513562       0.01301593
V        4.73735857       1.64483035      10.67332745      -0.55886785       0.05101520       0.06849468      -1.08084607      -0.32630500      -0.19831374
V        7.59711075       4.57683802       7.55340338       0.33912771      -0.10549721      -0.31808309      -0.00821112      -0.02179126       0.00763523
Cr       4.56967211       4.61048841       7.60161877       0.07568992      -0.63458670      -0.42083452       0.09273686       0.00120188      -0.03343264
V        8.39734745       5.34552050      11.41219330      -0.60199168      -0.78846703      -0.03709646      -0.05716965      -0.01303117       0.20832145
Cr       6.15302706       0.10736673      12.17719364      -0.11559591       0.58186782      -0.11723473       0.45993072       0.24976698       0.33176705
Ti       7.73003197       1.71441805      13.72855186      -0.08497016       0.48898807      -0.23145881      -0.06051555      -0.12996379      -0.04918033
Cr       4.65878534       4.61685658      13.65060997       0.19673503       0.02069819       0.45055840       0.01510559      -0.03879650      -0.02270805
V        4.64415121       1.64680839      13.67774200       0.23184581      -0.12327891       0.14271754      -0.00472757      -0.06162181      -0.02614756
V        7.69779062       4.57546139      13.73951244      -0.13233864       0.38334763       0.75061219      -0.04158240      -0.07548440       0.09907390
V        6.12215281       3.13868952      12.20703888      -0.29975177      -0.50467037       0.23487786       0.32953665      -0.26598901       0.05713522
Cr       4.66532803       7.72846794       1.63767815       0.26681468       0.26167138      -1.09056485       0.05707610       0.01038760      -0.00684545
Cr       6.18905783       6.04484177       0.12386508       0.17081276       0.53434300      -0.08044325      -0.08888327       0.08458521      -0.06850975
Cr       7.68843889       7.66284180       1.64129007      -0.00891712       0.49538828      -0.30624080      -0.02629272      -0.03631451       0.15671608
V        6.17701769       9.25370216       0.07642455      -0.00240219      -0.42550615       0.76249500       0.02190593       0.01359409      -0.10754853
V        7.70178938      10.71622276       1.62656188       0.01775890      -0.34186231      -0.50847438      -0.31177551      -0.41810101      -0.13054402
Cr       6.18762732       9.22629070       3.15002704      -0.19499223       0.25574014       0.29541568      -0.12096282       0.24431616       0.19894969
V        4.71808481      10.75243855       1.59203696      -0.42287666      -0.43901344      -0.28892879      -0.52487946      -0.29051369      -0.09450485
V        6.16204405       6.13824844       3.07932639      -0.51499569      -0.53190903       0.14570733       0.00204121      -0.16497727       0.14277749
V        7.63704586      10.64403343       4.66836500      -0.21430593       0.16507638      -0.26590667      -0.03005936       0.00908019       0.02710530
V        4.62773848      10.70572472       4.65260601       0.43461892      -0.53964268      -0.12099408      -0.00327726       0.01615078      -0.01802002
Cr       6.16783905       9.18372631       6.09292269      -0.29900133      -0.06040721      -0.10025262       0.03198304      -0.06554759      -0.03899518
V        4.65714169       7.64277744       4.63368034       0.51856850      -0.36677631       0.07427142       0.01241876      -0.00356093      -0.04783107
Ti       7.69358921       7.63087559       4.59720612       0.04453164      -0.41001946       0.28375663       0.00282205       0.01859434      -0.07781491
V        6.13433886       6.10559797       6.12274313      -0.73653922       0.59058581      -0.35664615       0.20242713       0.48156723       0.06377159
V        7.62490034       7.75944471      10.73611546      -0.43892705       0.10152776      -0.19237785       0.04843602      -0.13416159      -0.10419169
V        6.22308540       9.19927311       9.12571049      -0.09491291      -0.17139175       0.43971294       0.01436127       0.04340420       0.04460766
V        7.73137426      10.70108032      10.67749596      -0.29148120      -0.42632953      -0.33857956      -0.82375550      -0.40299183      -0.23663017
V        7.59395218      10.64881325       7.65090227       0.79687644      -0.17898123       0.26919892       0.00636050      -0.01961530      -0.03400382
Cr       4.68646336       7.70083714      10.59451389      -0.26342258       0.05103057       0.37955954      -0.03357748       0.08084410      -0.01472796
Cr       6.14613676       6.28936100       9.04750824       0.27124571       0.66345542       0.11605863       0.01645876      -0.05235007       0.04870773
Ti       4.73302364      10.62243080      10.66949463      -0.42866492       0.27993713      -0.04132571      -0.36397117       0.29531914      -0.51010478
Cr       4.67665911      10.70558167       7.65588045       0.06476353      -0.10223770       0.25966376      -0.02049856      -0.03971712      -0.02992551
Cr       4.69750977       7.74870396       7.56321335      -0.12987459      -0.65617537      -0.10831778      -0.27999219      -0.58310026       0.35688770
V        7.63929987       7.66842175       7.62792444      -0.32780682       0.27829326       0.67451795       0.01839056       0.06546326      -0.03349933
V        6.06581783       6.14555311      12.15900135      -0.16846634      -0.21079111      -0.61238153       0.06315650       0.02469478      -0.02563332
V        4.66873312       7.68943930      13.68816662      -0.00919711      -0.55296009       0.20732502       0.08971404       0.00409583       0.02058414
V        7.65858507      10.64133167      13.74201775       0.22093420      -0.16466507       0.01312746       0.03783147       0.03057519      -0.03389799
V        6.18502712       9.28944588      12.16105461      -0.01895721      -0.43729018       0.52813850      -0.09927545      -0.58797538       0.58137476
V        7.63906670       7.58648729      13.68648815      -0.04106484       0.52607491      -0.07710788      -0.25387579       0.52844930       0.01819086
V        4.67070532      10.69098282      13.73118114       0.12559811      -0.02796253      -0.23631542      -0.02413364       0.02373181       0.00355508
121
Lattice="9.04215026885 0.0 0.0 0.0 12.0474946843 0.0 0.0 0.0 15.109870339" Properties=species:S:1:pos:R:3:force:R:3:forces:R:3 config_type=sia_aa parent_id=99999999 generation=9 step=33 variance=1.0880271196365356 loss=1.0880271196365356 energy=-1062.74791222721 pbc="T T T"
V        1.64583015       1.70094728       1.53808928       0.12336864      -0.55775086       0.26652868      -0.10822030      -0.72479886      -0.02915412
Cr       0.19980612       3.16444230       3.11598444      -0.30471008       0.36888619      -0.26157671      -0.57340777      -0.05201331       0.06649423
Cr       3.14702916       3.13391566       0.05026766      -0.14483782       0.42276353       0.19493684      -0.05317999       0.08749540      -0.03874198
Ti       1.62817454       4.67999363       1.59297788       0.01524858      -0.46384834      -0.57507944       0.03009198       0.01690738      -0.04473986
Cr       3.10737252       3.14768624       3.12527990      -0.08509405       0.23608282      -0.31136076       0.00751097      -0.07621155       0.06098965
V        0.13660768       3.14298844       0.15608470       0.28828765      -0.55882773      -0.26871112      -0.05161841      -0.08409684      -0.03720447
Ti       3.12619472       0.08881456       3.10726643       0.37805461       0.63142304       0.02508166       0.02219548      -0.00664007       0.00915540
Cr       0.09747638       0.11655690       3.18249369       0.15998867      -0.27372486      -0.29410120      -0.01114367      -0.01869764       0.00501511
V        3.18282962       0.12593897       0.11383996      -0.35674453      -0.13707954      -0.19979723       0.03794951      -0.00177930      -0.04007965
V        0.08338217       0.11259213       0.15995264       0.39279499      -0.14148923       0.51735942      -0.02304316      -0.03054848      -0.00069413
V        3.11431932       0.08958213       6.11949110       0.13511636       0.32327942       0.30897587       0.05576501      -0.01021854      -0.08029440
V        0.15505095       3.17724681       6.14713192      -0.38956597      -0.09577405      -0.11714668      -0.67407501      -0.46040052      -0.20201376
V        3.06849122       3.14226890       6.08202934      -0.22865876       0.48156623       0.44052387       0.14411053      -0.00393477       0.05068236
Cr       1.65504932       1.63345897       4.71970320       0.11349473      -0.20055457      -0.22876322       0.03110526       0.03127187      -0.04156010
V        1.62744284       4.65688801       4.67596531      -0.18164018      -0.13909514      -0.05803332      -0.02543274       0.01484679      -0.01367632
Cr       0.10383625       0.02836636       6.18271828      -0.50040781       0.98748333      -0.12993435      -0.21590213       0.18418011      -0.28923166
V        1.67396843       1.67865562      10.63155460       0.09284277       0.09780789      -0.04371548      -0.03133520      -0.06163235       0.03430300
Ti       1.73952532       4.65511799      10.67970657       0.24891965      -0.13255286      -0.27944305      -0.02530650      -0.02054141       0.04725225
V        3.07991385       3.10311604       9.17817211      -0.24226432       0.20586085       0.21024379      -0.01623750       0.03427296      -0.04613147
Cr       0.16378559       0.08920550       9.18226337      -0.24410837       0.80602365       0.36256282      -0.00988030      -0.05826563      -0.02681590
Ti       1.52387536       4.50873184       7.60720396       0.22888302       0.12901640       0.34742727       0.72613448       0.75930345       0.35265106
Ti       3.08789086       0.15464254       9.11559391       0.21686370      -0.44867982       0.95057070       0.09033568      -0.24505650       0.59114182
V        0.12860090       3.07600904       9.14889050       0.16815693      -0.09169343       0.01600119      -0.00873027       0.04197577       0.01594011
Ti       1.64568007       1.62383509       7.63734913      -0.07467103       0.04581711      -0.30137985       0.03413256       0.07100945      -0.01496580
Cr       1.61137211       1.60220563      13.69379044       0.21551379       0.48192373       0.26571851      -0.00618837       0.03048320      -0.02076406
V        0.07596539       3.04439831      12.12261772       0.28768070       0.04952769       0.07265712       0.07091409      -0.15614109       0.06321763
Ti       1.64352274       4.57351542      13.65547085      -0.07634035      -0.58774094      -0.14681849      -0.04192645       0.02153358       0.04140167
Cr       0.11029959       0.10979570      12.09893131      -0.31214203      -0.21112271       0.16380953      -0.01045597      -0.01636871      -0.00213427
Ti       3.14826775       3.10946798      12.12258244       0.15023462      -0.36455990       0.02632671      -0.03371204       0.00494620       0.03970098
Cr       4.58793879       1.58838081       7.56840372      -0.13825882       0.06305176      -0.06047647      -0.02304550       0.01455461       0.06228223
Ti       3.23623776       0.14264937      12.11828423       0.13594777       0.06708415       0.01240439      -0.03788199      -0.04699036       0.06642395
V        1.62456477       7.67352152       1.66851759      -0.31573477      -0.43787051      -0.11670711      -0.04417697      -0.01313153       0.00324466
Ti       0.07752141       9.15514851       0.14917605      -0.41727118       0.08700563       0.07074955       0.02740330      -0.01369612      -0.00804009
V        1.46111047      10.75009823       1.58893001       0.12451573      -0.14523481       0.18908651       1.22522676      -0.50185561       0.08880310
Ti       3.17287517       9.24787331       0.18216830       0.30973414       0.10444106      -0.38234872      -0.02781442       0.00925259       0.00201880
Ti       3.16133046       6.09071779       0.16143093       0.21114748      -0.14190603       0.18283750      -0.05203405      -0.02436673      -0.01678984
Cr       3.12804794       6.15759802       3.13220811       0.24864179      -0.36286768       0.51937467      -0.04785665       0.02298329      -0.02281656
V        0.17490049       6.15755796       3.13765097       0.02726826       0.40408804      -0.41071015      -0.03370599      -0.06130540       0.08489741
V        3.11226416       9.21782207       3.16651368      -0.19989548       0.23965565       0.39695800       0.03166192      -0.01692173      -0.05984336
V        0.14494166       9.20110130       3.17444015       0.18811493      -0.03344905      -0.22755072       0.02005454       0.00029097       0.00515709
Ti       0.15848261       6.03318739       0.13103627       0.39416593       0.51259765       0.86201062      -0.12803127       0.53999525       0.43742555
Cr       0.13676962       6.17556143       6.16377211      -0.04190235      -0.08556814      -0.30348755      -0.01006120       0.00726251      -0.01521085
V        3.11277008       6.17522001       6.11370468       0.20860918      -0.05229005       0.17437783      -0.01080811       0.00242336      -0.01100730
Cr       3.14714098       9.12322140       6.08935404      -0.19956182       0.02006404       0.05763686      -0.01214989       0.02700435      -0.02398824
V        1.62993848       7.65389061       4.63328123      -0.03611526       0.43978534      -0.11759395      -0.04993008       0.03392430      -0.00581208
V        1.65266597      10.63980293       4.63877869      -0.14714380       0.03495247       0.16214488       0.02577734      -0.06102566       0.01698064
V        0.11665516       9.13318443       6.14662933       0.35920676       0.03519844      -0.36619116      -0.00790218       0.00062294      -0.00881998
Cr       1.61724603       7.65333700      10.56917572       0.37468230      -0.84800609      -0.05239464       0.49448308      -0.08583812       0.07520425
V        1.72375572      10.62457371      10.62801743       0.19461945       0.13702701       0.51475732       0.02450377       0.04620298       0.02125100
V        3.14674497       9.18714142       9.11152935      -0.60058442       0.52209752      -0.36571525      -0.04017129      -0.08016846       0.04899619
Cr       1.65902436      10.58710194       7.62485027       0.34446019      -0.21103680      -0.27389820       0.08858740       0.07475112       0.07483737
Cr       0.11892164       9.17129707       9.15356827      -0.42468140      -0.45623039      -0.31589002      -0.05159964       0.06083931      -0.02206585
Cr       0.11053848       6.21603107       9.18664360       0.26157478       0.32109079      -0.72278924      -0.43649632      -0.37906498      -1.00802922
V        1.67220175       7.63811111       7.64823055       0.21425658      -0.29311720      -0.27242643       0.02126877      -0.00487398      -0.00468591
V        3.12779927       6.13491488       9.08395767       0.13114898      -0.07698032       0.73799726      -0.01052179       0.04621174       0.02689897
Ti       1.85623741       7.79582119      14.03395939       0.07904385       0.27709667       0.22855053      -0.04864196       0.05372677      -0.12121021
Ti       0.01517775       9.19377613      12.18322849       0.12510576       1.01786707      -0.07278165       0.35460669       0.39975202      -0.07626641
Cr       1.58019781      10.66824341      13.73727322       0.43598145       0.45394227       0.10056438       0.27026063       0.16254365       0.07969925
Cr       3.18801045       9.18950939      12.17983246       0.70566422       0.22470573      -0.21984451       0.06521556       0.09249012      -0.02779831
Cr       0.61027390       6.58043432      12.61791611       0.04506623       0.36969481       0.03009417       0.02425449       0.08705505       0.04004170
V        3.24985242       6.18988228      12.20189095       0.39725823      -0.16635280       0.15196626       0.01178402       0.01410569       0.01834144
Ti       7.65562057       1.54784465       1.61436701       0.38612614       0.56528880       0.21656025       0.04347737       0.88544095      -0.25697798
Ti       6.25877476       0.25134343       0.02069750      -0.88431171      -0.58113194       0.15639659      -0.48617673      -1.26356077       0.17525750
V        7.68773365       4.61154270       1.65532160       0.02175996      -0.47104544       0.72155284       0.01762530      -0.00075538      -0.03318352
Ti       6.21778440       3.07768703       3.12466311      -0.21428843       0.57691073      -0.30100857      -0.02158401       0.02029445       0.00047308
Ti       4.57155561       4.44005585       1.59887743      -0.17319122       0.54314502       0.39128033       0.89008111       1.03693533       0.04671637
Cr       4.68733454       1.56350040       1.61410296      -0.37853052       0.23090911      -0.15344603       0.02778399       0.07492401      -0.02533832
Ti       6.19631624       0.08791794       3.15419436       0.22981768      -0.16057531      -0.49639897       0.00215916      -0.06503099       0.03087964
V        6.18855810       3.08061957       0.07524017      -0.03868783       0.26985406      -0.74226529       0.13917014       0.22141239       0.11007943
V        7.60232210       1.65246999       4.69468164       0.22401344      -0.64964792       0.14370252       0.09392898       0.08834626      -0.06550296
V        6.15450621       3.08485651       6.08405304       0.18916830       0.20292950      -0.03475224       0.03683072       0.01812396      -0.04715932
Cr       7.65010309       4.67551231       4.62823915       0.17616632      -0.40628320       0.36241230      -0.01088190      -0.00513163      -0.02199351
Cr       4.68830967       4.63973570       4.68560076       0.23974770      -0.01977110      -0.36023129       0.03483755      -0.05642413      -0.03957364
V        4.63630438       1.65024805       4.63171053      -0.47069947      -0.08962739      -0.23536131       0.02503739      -0.02042008       0.03923440
V        6.10849857       0.16259126       6.07282114      -0.02249125      -0.28372874      -0.16885494       0.33693999      -0.69068134      -0.03251582
V        6.19467640       0.06705904       9.18916512      -0.20067602       0.26033203      -0.31201050      -0.03413167      -0.04566748       0.00105618
V        4.54408216       4.68087578      10.65036583      -0.70661699      -0.00015184      -0.85645687       0.06089160      -0.01335162      -0.03379680
Ti       7.54932642       1.53847861       7.61429739       1.16094605      -0.03019936      -0.15976805       0.46970186       0.33019567      -0.09978919
V        7.63901854       1.58391750      10.62862968      -0.06716669      -0.45099652      -0.02603820      -0.00025169      -0.01421144       0.00330173
V        5.94924831       2.78767180       8.99567986      -0.34720181       0.45736300       0.13315015       0.27086347       1.10306978      -0.19499722
Cr       7.13461542       4.20667887      10.15860939       0.43118762      -0.37569719       0.41132473      -0.09588449      -0.02288094      -0.11620554
V        4.71660566       1.65229535      10.65226841      -0.55886785       0.05101520       0.06849468      -0.97518414      -0.38560614      -0.00996827
V        7.57579517       4.58940315       7.55704594       0.33912771      -0.10549721      -0.31808309       0.05779264      -0.09926089      -0.02082887
Cr       4.59812212       4.61398125       7.58989048       0.07568992      -0.63458670      -0.42083452      -0.07417905       0.01448692       0.03899172
V        8.38958740       5.34425402      11.42716980      -0.60199168      -0.78846703      -0.03709646      -0.00139088      -0.03119417       0.15501088
Cr       6.13870239       0.14817044      12.19721794      -0.11559591       0.58186782      -0.11723473       0.53909403      -0.12482834       0.14329866
Ti       7.72370148       1.69884145      13.72894096      -0.08497016       0.48898807      -0.23145881       0.01984312      -0.00456251       0.02502082
Cr       4.67219162       4.61921644      13.64186192       0.19673503       0.02069819       0.45055840      -0.04264809      -0.05804616      -0.08603211
V        4.64708090       1.63973117      13.66401100       0.23184581      -0.12327891       0.14271754      -0.02200129       0.07713556       0.08884420
V        7.69506931       4.57326794      13.75110817      -0.13233864       0.38334763       0.75061219       0.00323637      -0.04769184       0.03419076
V        6.14987993       3.09622192      12.20614338      -0.29975177      -0.50467037       0.23487786       0.13268366       0.01108988       0.02838219
Cr       4.68230200       7.74829435       1.62982798       0.26681468       0.26167138      -1.09056485       0.03792089      -0.05318940       0.05795203
Cr       6.18093204       6.05617857       0.11669049       0.17081276       0.53434300      -0.08044325      -0.00938397       0.06574184       0.02717593
Cr       7.67526150       7.66713572       1.66030967      -0.00891712       0.49538828      -0.30624080       0.00729345      -0.03259698       0.11712015
V        6.18989611       9.24726772       0.08513899      -0.00240219      -0.42550615       0.76249500      -0.01085820       0.03955891      -0.13355212
V        7.72538376      10.68025303       1.60038412       0.01775890      -0.34186231      -0.50847438      -0.49036750      -0.18939355      -0.01045667
Cr       6.16219997       9.27716064       3.18196630      -0.19499223       0.25574014       0.29541568       0.02002180      -0.12617263      -0.01993517
V        4.70910931      10.72680092       1.59159291      -0.42287666      -0.43901344      -0.28892879      -0.48880404      -0.09399339      -0.13188714
V        6.16046476       6.08600426       3.09507895      -0.51499569      -0.53190903       0.14570733       0.01339955       0.13648331       0.03595129
V        7.63191128      10.64012241       4.67701530      -0.21430593       0.16507638      -0.26590667       0.01414388       0.05259175       0.00425814
V        4.62330532      10.70781803       4.65437078       0.43461892      -0.53964268      -0.12099408      -0.02789051       0.04672770      -0.02751089
Cr       6.17153358       9.18760490       6.09488821      -0.29900133      -0.06040721      -0.10025262       0.00822965      -0.04763497      -0.01305870
V        4.67561102       7.63487816       4.62306738       0.51856850      -0.36677631       0.07427142      -0.05843754       0.00769911       0.00601382
Ti       7.68851137       7.63812876       4.60338593       0.04453164      -0.41001946       0.28375663       0.00495207      -0.01835069      -0.07118300
V        6.13420725       6.14055920       6.12702370      -0.73653922       0.59058581      -0.35664615       0.22347087       0.25740874       0.04943384
V        7.60707569       7.76649427      10.72699451      -0.43892705       0.10152776      -0.19237785       0.17100072      -0.12480491      -0.05825549
V        6.22191763       9.21242619       9.12554836      -0.09491291      -0.17139175       0.43971294       0.00657202       0.02304955       0.07419993
V        7.71225834      10.71436310      10.66333771      -0.29148120      -0.42632953      -0.33857956      -0.73934782      -0.49507952      -0.07661198
V        7.60752153      10.66313362       7.64951324       0.79687644      -0.17898123       0.26919892      -0.01878881      -0.01436943       0.00392539
Cr       4.67557716       7.70423269      10.60610294      -0.26342258       0.05103057       0.37955954      -0.02348356       0.03095696      -0.04581862
Cr       6.14500189       6.28698301       9.06658649       0.27124571       0.66345542       0.11605863       0.02730006      -0.01033702       0.00310523
Ti       4.73640490      10.62351704      10.70441914      -0.42866492       0.27993713      -0.04132571      -0.36495623       0.23023289      -0.63678634
Cr       4.66274786      10.69528484       7.65491915       0.06476353      -0.10223770       0.25966376       0.00004187       0.04646819       0.03473285
Cr       4.71018696       7.77302408       7.57327509      -0.12987459      -0.65617537      -0.10831778      -0.37775880      -0.69550455       0.33509630
V        7.64591980       7.67088270       7.62824154      -0.32780682       0.27829326       0.67451795       0.00482063       0.07764279       0.00255249
V        6.07928371       6.14935923      12.15456009      -0.16846634      -0.21079111      -0.61238153      -0.03705180      -0.02412919      -0.00139461
V        4.68887997       7.68988228      13.69068146      -0.00919711      -0.55296009       0.20732502      -0.06659459      -0.04905596       0.00437872
V        7.65821028      10.64566898      13.73895645       0.22093420      -0.16466507       0.01312746       0.00254458       0.00998794      -0.00696593
V        6.16637754       9.23330116      12.20613575      -0.01895721      -0.43729018       0.52813850       0.02724824      -0.12494918       0.27238137
V        7.64101028       7.59175444      13.66571426      -0.04106484       0.52607491      -0.07710788      -0.24930602       0.49417624       0.16460347
V        4.66544724      10.69952106      13.72777557       0.12559811      -0.02796253      -0.23631542       0.01369627      -0.02894804       0.03379944
121
Lattice="9.04215026885 0.0 0.0 0.0 12.0474946843 0.0 0.0 0.0 15.109870339" Properties=species:S:1:pos:R:3:force:R:3:forces:R:3 config_type=sia_aa parent_id=99999999 generation=9 step=44 variance=1.1497849225997925 loss=1.1497849225997925 energy=-1062.8575456204294 pbc="T T T"
V        1.63539517       1.71772790       1.53898239       0.12336864      -0.55775086       0.26652868      -0.09210428      -0.87971342      -0.02728942
Cr       0.19939278       3.16953802       3.11007190      -0.30471008       0.36888619      -0.26157671      -0.57919025      -0.06326579       0.12728265
Cr       3.13299918       3.13805556       0.04728346      -0.14483782       0.42276353       0.19493684      -0.00585490       0.02017986      -0.04812076
Ti       1.63342237       4.67954350       1.59672058       0.01524858      -0.46384834      -0.57507944       0.01652157      -0.01658246      -0.06475227
Cr       3.10479164       3.11800408       3.13166571      -0.08509405       0.23608282      -0.31136076       0.04847258       0.07903991       0.02134514
V        0.13882819       3.12532640       0.15157861       0.28828765      -0.55882773      -0.26871112      -0.01784725       0.02298917       0.01032204
Ti       3.13306665       0.08048464       3.11082697       0.37805461       0.63142304       0.02508166      -0.02885392       0.01446159      -0.02107207
Cr       0.09059404       0.11783259       3.18746257       0.15998867      -0.27372486      -0.29410120       0.03096520      -0.02368636      -0.05477059
V        3.19365573       0.13926464       0.10429087      -0.35674453      -0.13707954      -0.19979723      -0.00610071      -0.00995546       0.02104126
V        0.08500920       0.11116205       0.14559399       0.39279499      -0.14148923       0.51735942      -0.03633319      -0.02931072       0.09061058
V        3.13276267       0.08791722       6.10973167       0.13511636       0.32327942       0.30897587      -0.03560975       0.01713176      -0.02807180
V        0.14006677       3.17137337       6.14710331      -0.38956597      -0.09577405      -0.11714668      -0.55190724      -0.43678579      -0.23353350
V        3.07989311       3.15277767       6.08579254      -0.22865876       0.48156623       0.44052387       0.06025694      -0.04876926       0.03239720
Cr       1.66288984       1.64275336       4.71489954       0.11349473      -0.20055457      -0.22876322       0.01177680      -0.01299406      -0.00922269
V        1.62735152       4.65533924       4.67368937      -0.18164018      -0.13909514      -0.05803332      -0.00733966      -0.01868611      -0.00394141
Cr       0.09126668       0.04753799       6.16005373      -0.50040781       0.98748333      -0.12993435      -0.11030363       0.10543968      -0.16103832
V        1.66661251       1.67157006      10.63694668       0.09284277       0.09780789      -0.04371548       0.00003067      -0.01085546       0.00641603
Ti       1.72739100       4.64768744      10.68912506       0.24891965      -0.13255286      -0.27944305       0.00760509       0.01170600      -0.01082330
V        3.07120371       3.11568189       9.16032791      -0.24226432       0.20586085       0.21024379       0.01362879      -0.05597882       0.08705111
Cr       0.16503192       0.08208827       9.17346764      -0.24410837       0.80602365       0.36256282      -0.00849503      -0.00378117       0.00554084
Ti       1.49519908       4.50441408       7.61933327       0.22888302       0.12901640       0.34742727       0.86944211       0.79744530       0.24472366
Ti       3.08855176       0.15072134       9.13377666       0.21686370      -0.44867982       0.95057070       0.05925969      -0.19177282       0.48035371
V        0.13330638       3.07288098       9.15501785       0.16815693      -0.09169343       0.01600119      -0.05186474       0.01862856       0.01835111
Ti       1.66085863       1.62600434       7.63093138      -0.07467103       0.04581711      -0.30137985      -0.04753587       0.06671073       0.00403800
Cr       1.61134160       1.59063160      13.69332790       0.21551379       0.48192373       0.26571851      -0.00574066       0.03865694      -0.00834852
V        0.08531020       3.04137278      12.13656616       0.28768070       0.04952769       0.07265712       0.04340881      -0.16738580       0.02829446
Ti       1.65215516       4.56596851      13.67332077      -0.07634035      -0.58774094      -0.14681849      -0.15564936       0.15145655      -0.09833290
Cr       0.10742292       0.10616177      12.09554482      -0.31214203      -0.21112271       0.16380953       0.00460472      -0.03575986      -0.00001238
Ti       3.12434816       3.09779859      12.14297295       0.15023462      -0.36455990       0.02632671       0.11565612       0.03139104      -0.14664000
Cr       4.59138966       1.57690847       7.57745743      -0.13825882       0.06305176      -0.06047647       0.00125068       0.07921498      -0.02234825
Ti       3.23349762       0.14457107      12.11615658       0.13594777       0.06708415       0.01240439      -0.01610951      -0.03225604       0.04123634
V        1.61146033       7.67301607       1.67513895      -0.31573477      -0.43787051      -0.11670711       0.00425376      -0.03390169      -0.04537468
Ti       0.08318171       9.16895676       0.14045881      -0.41727118       0.08700563       0.07074955       0.00269661      -0.04157522       0.02893330
V        1.46492267      10.73663902       1.58896530       0.12451573      -0.14523481       0.18908651       1.15322018      -0.40483230       0.07599714
Ti       3.16683888       9.24074936       0.18294409       0.30973414       0.10444106      -0.38234872       0.01083900       0.02438250       0.04177040
Ti       3.15250564       6.08698082       0.15039237       0.21114748      -0.14190603       0.18283750      -0.01874420      -0.00436728      -0.00303438
Cr       3.12524390       6.15020132       3.11958766       0.24864179      -0.36286768       0.51937467       0.00802793       0.01514400       0.01303170
V        0.17526485       6.13983917       3.14376950       0.02726826       0.40408804      -0.41071015      -0.02118495       0.02454237       0.06946816
V        3.11468792       9.20879078       3.15344644      -0.19989548       0.23965565       0.39695800      -0.02737491       0.01701203       0.02718174
V        0.14126478       9.20332146       3.18175554       0.18811493      -0.03344905      -0.22755072       0.04080626      -0.01074326      -0.00287553
Ti       0.17213726       6.03532314       0.14153352       0.39416593       0.51259765       0.86201062      -0.17634904       0.55461991       0.34511292
Cr       0.13752834       6.17002535       6.16214228      -0.04190235      -0.08556814      -0.30348755      -0.01194116       0.04783880       0.00047751
V        3.11174154       6.17658520       6.10595989       0.20860918      -0.05229005       0.17437783      -0.01467953       0.01602978      -0.00270274
Cr       3.14485574       9.12965488       6.09062910      -0.19956182       0.02006404       0.05763686      -0.01339444      -0.00425362      -0.03835117
V        1.62670541       7.65014172       4.62943268      -0.03611526       0.43978534      -0.11759395      -0.01729332       0.03851010       0.01146596
V        1.65135610      10.63964844       4.65064287      -0.14714380       0.03495247       0.16214488       0.02136175      -0.06087064      -0.06539962
V        0.11758398       9.13479424       6.15018559       0.35920676       0.03519844      -0.36619116       0.00858838       0.05987596       0.01730628
Cr       1.69682980       7.62083101      10.57639503       0.37468230      -0.84800609      -0.05239464       0.02037426       0.04426938      -0.01545633
V        1.72695136      10.62251854      10.62517452       0.19461945       0.13702701       0.51475732      -0.01636182       0.02253887       0.01816765
V        3.13321805       9.17045975       9.11788177      -0.60058442       0.52209752      -0.36571525       0.07825932       0.01603603      -0.00669790
Cr       1.67433071      10.60180855       7.62960958       0.34446019      -0.21103680      -0.27389820      -0.02522450       0.02233372       0.00340092
Cr       0.12223787       9.17444897       9.16142368      -0.42468140      -0.45623039      -0.31589002      -0.00238352       0.00283774       0.00037086
Cr       0.09103449       6.22335434       9.15827274       0.26157478       0.32109079      -0.72278924      -0.29211795      -0.38633800      -0.71700168
V        1.67482090       7.63668346       7.64087677       0.21425658      -0.29311720      -0.27242643      -0.00936557       0.01952083       0.02896800
V        3.12480569       6.13767624       9.08755589       0.13114898      -0.07698032       0.73799726       0.02246662      -0.01314571      -0.00684463
Ti       1.85546863       7.80660200      14.02686024       0.07904385       0.27709667       0.22855053      -0.04856018       0.02101784      -0.11076995
Ti      -0.03452030       9.17308807      12.15512657       0.12510576       1.01786707      -0.07278165       0.67425191       0.61302990       0.05663694
Cr       1.62273788      10.69454861      13.74225616       0.43598145       0.45394227       0.10056438      -0.00493405      -0.01297751      -0.02992669
Cr       3.21456671       9.19852257      12.18112373       0.70566422       0.22470573      -0.21984451       0.01349593       0.09507470      -0.01239704
Cr       0.60875082       6.59060669      12.61439800       0.04506623       0.36969481       0.03009417      -0.04986671       0.00805740       0.06527281
V        3.23478508       6.21212864      12.18707657       0.39725823      -0.16635280       0.15196626       0.13571304      -0.13687786       0.08100779
Ti       7.65204144       1.55197179       1.63306653       0.38612614       0.56528880       0.21656025       0.01535594       0.78612745      -0.40911311
Ti       6.22567320       0.23717546      -0.01312181      -0.88431171      -0.58113194       0.15639659      -0.24444237      -1.08147156       0.38775557
V        7.69558668       4.61880875       1.65380287       0.02175996      -0.47104544       0.72155284       0.01273861       0.00438009      -0.00769566
Ti       6.21185637       3.09240556       3.12209678      -0.21428843       0.57691073      -0.30100857      -0.00359051      -0.04141843      -0.00161707
Ti       4.56230688       4.41120243       1.56402910      -0.17319122       0.54314502       0.39128033       0.96881008       1.21449518       0.25677752
Cr       4.69648123       1.56811023       1.60917091      -0.37853052       0.23090911      -0.15344603       0.02886895       0.06006166      -0.03870290
Ti       6.18795013       0.08112093       3.15193105       0.22981768      -0.16057531      -0.49639897       0.01479955      -0.04593857       0.02955513
V        6.24746704       3.12388253       0.09868040      -0.03868783       0.26985406      -0.74226529      -0.16588190      -0.03401967      -0.00715243
V        7.59681845       1.67384994       4.68435621       0.22401344      -0.64964792       0.14370252       0.09708373      -0.02278821      -0.02398480
V        6.15735340       3.08152437       6.08189917       0.18916830       0.20292950      -0.03475224       0.04071206       0.02913886      -0.03082195
Cr       7.64710665       4.67140484       4.62787151       0.17616632      -0.40628320       0.36241230      -0.01442740       0.04569618      -0.00428888
Cr       4.69299841       4.64098263       4.67735863       0.23974770      -0.01977110      -0.36023129       0.02888453      -0.01143593       0.03957023
V        4.64047813       1.64431965       4.63075447      -0.47069947      -0.08962739      -0.23536131       0.02247196      -0.01948453       0.05187524
V        6.10769653       0.14083995       6.07187986      -0.02249125      -0.28372874      -0.16885494       0.36791727      -0.51526755      -0.03021979
V        6.18680573       0.05820423       9.18591404      -0.20067602       0.26033203      -0.31201050       0.00887058       0.04310953      -0.00465733
V        4.53811359       4.67099619      10.64545441      -0.70661699      -0.00015184      -0.85645687       0.06411311       0.00565064      -0.02957328
Ti       7.57446718       1.53515542       7.61287260       1.16094605      -0.03019936      -0.15976805       0.28986186       0.35808760      -0.10804244
V        7.63518333       1.58657527      10.62905884      -0.06716669      -0.45099652      -0.02603820       0.02314784      -0.03549934      -0.00920632
V        5.95406055       2.78303838       8.98710155      -0.34720181       0.45736300       0.13315015       0.24376029       1.10368073      -0.17329973
Cr       7.13357925       4.20324421      10.15616226       0.43118762      -0.37569719       0.41132473      -0.09432374      -0.02110149      -0.12078400
V        4.70580912       1.63947320      10.62631512      -0.55886785       0.05101520       0.06849468      -0.89591360      -0.27403781       0.14138785
V        7.58026361       4.58631277       7.55434036       0.33912771      -0.10549721      -0.31808309       0.02271888      -0.06632208      -0.02070238
Cr       4.59731150       4.63270092       7.58958197       0.07568992      -0.63458670      -0.42083452      -0.01503432      -0.02493782       0.01473755
V        8.39375782       5.33335590      11.43096447      -0.60199168      -0.78846703      -0.03709646       0.00470168      -0.00462132       0.13175273
Cr       6.12717009       0.14668047      12.19856358      -0.11559591       0.58186782      -0.11723473       0.52085888      -0.07570443       0.08546831
Ti       7.72645903       1.69130349      13.72700977      -0.08497016       0.48898807      -0.23145881      -0.00374041       0.00812570       0.05931265
Cr       4.66889954       4.60627699      13.61468029       0.19673503       0.02069819       0.45055840      -0.01149816       0.06013839       0.04079043
V        4.65596104       1.67092156      13.68176460       0.23184581      -0.12327891       0.14271754       0.00318695      -0.05913862      -0.04585505
V        7.71162891       4.57177258      13.75553226      -0.13233864       0.38334763       0.75061219      -0.03109182       0.01751985       0.06681825
V        6.17408085       3.09718227      12.21019459      -0.29975177      -0.50467037       0.23487786       0.01570563      -0.01753397      -0.02197370
Cr       4.68748903       7.73769808       1.63081312       0.26681468       0.26167138      -1.09056485      -0.01765385      -0.03173973       0.05666357
Cr       6.17620468       6.06793499       0.12020724       0.17081276       0.53434300      -0.08044325       0.02406518      -0.01697177      -0.01061241
Cr       7.69573307       7.66064644       1.67630744      -0.00891712       0.49538828      -0.30624080      -0.08839053       0.00062300       0.04455308
V        6.18695784       9.24577999       0.09661023      -0.00240219      -0.42550615       0.76249500       0.01601796       0.03510801      -0.13711229
V        7.71716881      10.67644119       1.60156870       0.01775890      -0.34186231      -0.50847438      -0.46573633      -0.14337909      -0.05998730
Cr       6.16135550       9.25913239       3.17537904      -0.19499223       0.25574014       0.29541568      -0.00541673      -0.01423696       0.01021319
V        4.68287706      10.73692894       1.57708669      -0.42287666      -0.43901344      -0.28892879      -0.36343360      -0.19626908      -0.05248778
V        6.15007973       6.08397055       3.09597182      -0.51499569      -0.53190903       0.14570733       0.05824520       0.14402698       0.02545218
V        7.62758303      10.64659023       4.67213535      -0.21430593       0.16507638      -0.26590667      -0.00120656      -0.00245073       0.01686775
V        4.62368727      10.70144176       4.64790535       0.43461892      -0.53964268      -0.12099408      -0.03071120       0.04324944      -0.02792624
Cr       6.16724539       9.19624519       6.09576511      -0.29900133      -0.06040721      -0.10025262       0.02409893      -0.05475823      -0.02874342
V        4.66242790       7.63905001       4.62141037       0.51856850      -0.36677631       0.07427142       0.00583453      -0.00659429      -0.01259919
Ti       7.69548988       7.63950825       4.60768890       0.04453164      -0.41001946       0.28375663      -0.01621365      -0.01237380      -0.07000551
V        6.16778708       6.18638706       6.12963533      -0.73653922       0.59058581      -0.35664615      -0.01179122      -0.00317897       0.01819040
V        7.60348320       7.75660610      10.73372650      -0.43892705       0.10152776      -0.19237785       0.16595352      -0.11082002      -0.12197300
V        6.22186184       9.21359062       9.13591003      -0.09491291      -0.17139175       0.43971294      -0.01147363       0.04175479       0.01483393
V        7.69030428      10.73730564      10.65572453      -0.29148120      -0.42632953      -0.33857956      -0.63820457      -0.70172679      -0.03846389
V        7.59839106      10.66603184       7.64741993       0.79687644      -0.17898123       0.26919892       0.02527251      -0.00683373      -0.01023812
Cr       4.68424368       7.70541573      10.60844517      -0.26342258       0.05103057       0.37955954      -0.03153706       0.01811652      -0.02881677
Cr       6.15172911       6.29105806       9.07194805       0.27124571       0.66345542       0.11605863       0.00802758      -0.01253117      -0.01330910
Ti       4.72198963      10.63753891      10.66913700      -0.42866492       0.27993713      -0.04132571      -0.26149079       0.10547243      -0.38909480
Cr       4.65898275      10.70457268       7.66554976       0.06476353      -0.10223770       0.25966376      -0.00071082      -0.08394810      -0.01433100
Cr       4.70221233       7.76906204       7.57011318      -0.12987459      -0.65617537      -0.10831778      -0.33030450      -0.64448565       0.35782826
V        7.64826870       7.69254684       7.63637495      -0.32780682       0.27829326       0.67451795       0.00701131       0.02459676      -0.04025716
V        6.07876587       6.13816261      12.14898777      -0.16846634      -0.21079111      -0.61238153      -0.01978423      -0.01202976       0.01267420
V        4.68264484       7.68166161      13.70450497      -0.00919711      -0.55296009       0.20732502      -0.05293231      -0.01323812      -0.03294065
V        7.65919781      10.66448212      13.73661709       0.22093420      -0.16466507       0.01312746      -0.04146206      -0.10116415       0.02458408
V        6.17816973       9.21645546      12.25076294      -0.01895721      -0.43729018       0.52813850      -0.11763057       0.02943136      -0.01985165
V        7.61882734       7.59811354      13.65905094      -0.04106484       0.52607491      -0.07710788      -0.11144583       0.41755229       0.23836546
V        4.66295767      10.70448303      13.74191856       0.12559811      -0.02796253      -0.23631542      -0.00224018      -0.04639330      -0.03800980
121
Lattice="9.04215026885 0.0 0.0 0.0 12.0474946843 0.0 0.0 0.0 15.109870339" Properties=species:S:1:pos:R:3:force:R:3:forces:R:3 config_type=sia_aa parent_id=99999999 generation=9 step=55 variance=1.1795357465744019 loss=1.1795357465744019 energy=-1062.920779955507 pbc="T T T"
V        1.63184237       1.69806194       1.54419911       0.12336864      -0.55775086       0.26652868      -0.03538690      -0.74744958      -0.04414233
Cr       0.19376087       3.15782118       3.10511661      -0.30471008       0.36888619      -0.26157671      -0.48727497       0.01481538       0.16802447
Cr       3.12414432       3.13464522       0.04319874      -0.14483782       0.42276353       0.19493684       0.01024747       0.03451551      -0.03225313
Ti       1.63554585       4.67700481       1.59140205       0.01524858      -0.46384834      -0.57507944       0.01016698      -0.01058916      -0.05704238
Cr       3.11775398       3.13227749       3.12665749      -0.08509405       0.23608282      -0.31136076      -0.02825861      -0.00202187       0.02715376
V        0.14459911       3.12748194       0.15271306       0.28828765      -0.55882773      -0.26871112      -0.04312303      -0.00692455       0.01829000
Ti       3.12662268       0.08300868       3.10819364       0.37805461       0.63142304       0.02508166       0.00865183      -0.01249177      -0.00951220
Cr       0.09665305       0.11471648       3.18380284       0.15998867      -0.27372486      -0.29410120       0.02446842      -0.03565803      -0.04544555
V        3.18418217       0.13441262       0.11884787      -0.35674453      -0.13707954      -0.19979723       0.03080097       0.01445734      -0.05707664
V        0.08486285       0.10935452       0.16120757       0.39279499      -0.14148923       0.51735942      -0.00725405      -0.04260527       0.04243989
V        3.12757301       0.09272514       6.10289288       0.13511636       0.32327942       0.30897587       0.01111952      -0.02403256       0.02742229
V        0.12785420       3.14579463       6.15035248      -0.38956597      -0.09577405      -0.11714668      -0.48467273      -0.29653955      -0.29002902
V        3.09133744       3.14828944       6.10026455      -0.22865876       0.48156623       0.44052387      -0.06603157      -0.00769827      -0.05331452
Cr       1.67245436       1.65042126       4.71159410       0.11349473      -0.20055457      -0.22876322      -0.00535673      -0.02585536      -0.02177930
V        1.62930346       4.64714479       4.67107391      -0.18164018      -0.13909514      -0.05803332      -0.01176610       0.00527498       0.02643605
Cr       0.06908066       0.07214607       6.12301588      -0.50040781       0.98748333      -0.12993435       0.03275603       0.00586062       0.02752666
V        1.66215372       1.67921817      10.63276386       0.09284277       0.09780789      -0.04371548       0.00905885      -0.08017172       0.03497589
Ti       1.72618830       4.65057707      10.68158245       0.24891965      -0.13255286      -0.27944305      -0.01616729       0.00366200       0.01608640
V        3.06651044       3.11123753       9.15526390      -0.24226432       0.20586085       0.21024379      -0.00690553      -0.00482353       0.06791341
Cr       0.16709252       0.07893492       9.17288208      -0.24410837       0.80602365       0.36256282      -0.01983660       0.00393883       0.02661454
Ti       1.46477091       4.51061869       7.61124039       0.22888302       0.12901640       0.34742727       1.02161956       0.71255320       0.26968741
Ti       3.10361838       0.14612010       9.18563747       0.21686370      -0.44867982       0.95057070      -0.06372119      -0.18271843       0.16497549
V        0.12508699       3.07762313       9.15752411       0.16815693      -0.09169343       0.01600119      -0.03462104       0.01757350       0.00405176
Ti       1.64523625       1.62500548       7.62925243      -0.07467103       0.04581711      -0.30137985       0.03539264       0.05150183       0.01450094
Cr       1.60920703       1.59140265      13.69327831       0.21551379       0.48192373       0.26571851       0.00380331       0.02568868      -0.00210054
V        0.07427152       3.02422357      12.12780952       0.28768070       0.04952769       0.07265712       0.04315417      -0.08523534       0.05192200
Ti       1.64078546       4.56288719      13.65344906      -0.07634035      -0.58774094      -0.14681849      -0.09917392       0.12092750      -0.06920658
Cr       0.10957935       0.09968285      12.09629822      -0.31214203      -0.21112271       0.16380953      -0.01637622       0.01838180       0.02712327
Ti       3.13064075       3.10051227      12.13135147       0.15023462      -0.36455990       0.02632671       0.05040890       0.02831826      -0.08726262
Cr       4.58671474       1.57084298       7.56529379      -0.13825882       0.06305176      -0.06047647       0.01230619       0.01628052       0.05462724
Ti       3.22987914       0.14825746      12.11862373       0.13594777       0.06708415       0.01240439      -0.00723353      -0.02416834       0.06376573
V        1.61868012       7.66484833       1.67881453      -0.31573477      -0.43787051      -0.11670711      -0.01608034      -0.00217349      -0.07510163
Ti       0.07972105       9.16901970       0.15256980      -0.41727118       0.08700563       0.07074955       0.05165806      -0.04646988       0.00761836
V        1.47697461      10.73306656       1.57980156       0.12451573      -0.14523481       0.18908651       1.09155369      -0.41782612       0.16365629
Ti       3.17057204       9.23778248       0.18623073       0.30973414       0.10444106      -0.38234872      -0.00534758       0.02111067       0.00079004
Ti       3.15034962       6.09119797       0.13911405       0.21114748      -0.14190603       0.18283750      -0.02200168      -0.02462733       0.02972582
Cr       3.12692618       6.14193583       3.12410831       0.24864179      -0.36286768       0.51937467      -0.01815279       0.03131497      -0.01415646
V        0.17934029       6.14228821       3.14840007       0.02726826       0.40408804      -0.41071015      -0.02756995      -0.01170571       0.03552457
V        3.11109352       9.20428371       3.15497398      -0.19989548       0.23965565       0.39695800      -0.02285048       0.01702233       0.01224005
V        0.14117120       9.20029259       3.18286920       0.18811493      -0.03344905      -0.22755072       0.04175085       0.01059829      -0.00399615
Ti       0.18353871       6.03698969       0.12305625       0.39416593       0.51259765       0.86201062      -0.22318900       0.55645204       0.54496962
Cr       0.13768618       6.17979050       6.15305328      -0.04190235      -0.08556814      -0.30348755      -0.02005936       0.01133987       0.02914346
V        3.10784054       6.17385960       6.11049080       0.20860918      -0.05229005       0.17437783      -0.00589031       0.01545927      -0.01632542
Cr       3.14199567       9.12487125       6.08503866      -0.19956182       0.02006404       0.05763686      -0.02241627       0.03309583      -0.00697901
V        1.62417305       7.65414286       4.62916899      -0.03611526       0.43978534      -0.11759395      -0.00240500       0.01621770       0.00472048
V        1.64754200      10.64508820       4.65244913      -0.14714380       0.03495247       0.16214488       0.03811908      -0.05869745      -0.07780521
V        0.11891747       9.15087700       6.15290356       0.35920676       0.03519844      -0.36619116       0.00153825       0.00497362       0.00299800
Cr       1.69172657       7.61252785      10.58145332       0.37468230      -0.84800609      -0.05239464       0.07791067       0.06034462      -0.01602379
V        1.72721398      10.61721325      10.63423157       0.19461945       0.13702701       0.51475732      -0.00693440       0.01271356       0.01011498
V        3.13386989       9.16134644       9.11988258      -0.60058442       0.52209752      -0.36571525       0.05650233       0.07034915      -0.01344455
Cr       1.66611350      10.61351776       7.62760258       0.34446019      -0.21103680      -0.27389820       0.02506624       0.01102845       0.03786626
Cr       0.12081853       9.16500950       9.16590691      -0.42468140      -0.45623039      -0.31589002      -0.00167204       0.07017637      -0.00768407
Cr       0.08216017       6.21874666       9.14193344       0.26157478       0.32109079      -0.72278924      -0.30447817      -0.36967105      -0.57656288
V        1.66972685       7.63697100       7.63944387       0.21425658      -0.29311720      -0.27242643       0.01419066       0.03167215       0.02228315
V        3.12959075       6.12914419       9.09108639       0.13114898      -0.07698032       0.73799726      -0.00544091       0.01870396      -0.03208540
Ti       1.85761213       7.81574917      14.02315521       0.07904385       0.27709667       0.22855053      -0.05545303       0.03760299      -0.16198683
Ti      -0.00134958       9.17051888      12.14886284       0.12510576       1.01786707      -0.07278165       0.46062547       0.63259071       0.10135441
Cr       1.61457169      10.69698048      13.74048042       0.43598145       0.45394227       0.10056438       0.03893434      -0.04240639       0.01979505
Cr       3.23352480       9.22561741      12.18583107       0.70566422       0.22470573      -0.21984451      -0.07673469      -0.05885051      -0.05978736
Cr       0.59819728       6.59140587      12.62197971       0.04506623       0.36969481       0.03009417       0.01088835       0.02049082      -0.00489316
V        3.23437810       6.19870090      12.17434406       0.39725823      -0.16635280       0.15196626       0.10748397      -0.08100364       0.10185364
Ti       7.66492367       1.54809952       1.64219677       0.38612614       0.56528880       0.21656025      -0.07024539       0.79287660      -0.44824123
Ti       6.24655247       0.24122873      -0.02704715      -0.88431171      -0.58113194       0.15639659      -0.39134353      -1.12616420       0.51537895
V        7.70267296       4.61679602       1.65999103       0.02175996      -0.47104544       0.72155284      -0.01620527      -0.00216057      -0.04235406
Ti       6.21057463       3.09210801       3.12696934      -0.21428843       0.57691073      -0.30100857       0.01059650      -0.03617837      -0.01541375
Ti       4.56354570       4.41306114       1.55154991      -0.17319122       0.54314502       0.39128033       0.96631593       1.18602931       0.28978395
Cr       4.69826603       1.56727731       1.60513115      -0.37853052       0.23090911      -0.15344603       0.03665061       0.04238473      -0.02396242
Ti       6.18175459       0.07647289       3.15161228       0.22981768      -0.16057531      -0.49639897       0.02104429      -0.04479740       0.04055065
V        6.25199604       3.11036015       0.09454203      -0.03868783       0.26985406      -0.74226529      -0.18797831       0.06962032       0.04326327
V        7.59410906       1.67134070       4.68229914       0.22401344      -0.64964792       0.14370252       0.09839088      -0.01790850      -0.02919287
V        6.15874434       3.08452439       6.08386183       0.18916830       0.20292950      -0.03475224       0.02528021       0.00079520      -0.02421321
Cr       7.64960527       4.67606735       4.62899590       0.17616632      -0.40628320       0.36241230      -0.00851055       0.00496742      -0.00298555
Cr       4.69703102       4.64805603       4.67862844       0.23974770      -0.01977110      -0.36023129       0.02653503      -0.04527980       0.06914455
V        4.64216089       1.64157701       4.63506603      -0.47069947      -0.08962739      -0.23536131       0.04041138      -0.02226020       0.03420293
V        6.12390423       0.12256677       6.07486725      -0.02249125      -0.28372874      -0.16885494       0.25643632      -0.38451108      -0.03092686
V        6.18787718       0.06412586       9.18550491      -0.20067602       0.26033203      -0.31201050       0.01015359       0.03209959      -0.00989426
V        4.55909491       4.66021490      10.65643215      -0.70661699      -0.00015184      -0.85645687      -0.12734900       0.07090871      -0.09258966
Ti       7.60120869       1.53731203       7.61876440       1.16094605      -0.03019936      -0.15976805       0.08693662       0.35098904      -0.13123259
V        7.63295746       1.58457768      10.62571716      -0.06716669      -0.45099652      -0.02603820       0.00750432      -0.01903557      -0.02274426
V        5.93555212       2.78059983       8.96848869      -0.34720181       0.45736300       0.13315015       0.35878205       1.08397722      -0.09421699
Cr       7.12107277       4.20183706      10.15069389       0.43118762      -0.37569719       0.41132473      -0.05578185      -0.03189641      -0.10967539
V        4.68080473       1.65114868      10.61491680      -0.55886785       0.05101520       0.06849468      -0.69056356      -0.32869869       0.24181485
V        7.57300186       4.58618402       7.56188583       0.33912771      -0.10549721      -0.31808309       0.04454809      -0.05798413      -0.09713063
Cr       4.59645414       4.62431002       7.59427309       0.07568992      -0.63458670      -0.42083452      -0.03251448       0.01838300      -0.01330959
V        8.38755131       5.32219219      11.44437504      -0.60199168      -0.78846703      -0.03709646       0.00059316      -0.02547249       0.00970098
Cr       6.13478041       0.14648286      12.20341301      -0.11559591       0.58186782      -0.11723473       0.43094891       0.01394489       0.06251308
Ti       7.72634268       1.69203496      13.73738861      -0.08497016       0.48898807      -0.23145881       0.04111078       0.01840763      -0.01403029
Cr       4.66150856       4.61157179      13.61629105       0.19673503       0.02069819       0.45055840       0.02774129       0.00867656       0.02852884
V        4.65387392       1.67438936      13.68797016       0.23184581      -0.12327891       0.14271754       0.03516288      -0.07451353      -0.09156814
V        7.71431828       4.58167267      13.76692009      -0.13233864       0.38334763       0.75061219      -0.04621910      -0.06033939       0.03066114
V        6.17525816       3.09768629      12.20733547      -0.29975177      -0.50467037       0.23487786      -0.00012265       0.01252634       0.01097298
Cr       4.68306065       7.72361946       1.64010501       0.26681468       0.26167138      -1.09056485       0.00495624       0.03032923      -0.01471302
Cr       6.17615175       6.06644583       0.12220295       0.17081276       0.53434300      -0.08044325       0.02745857      -0.00587239       0.00502431
Cr       7.68549395       7.65778160       1.68104827      -0.00891712       0.49538828      -0.30624080      -0.01353885       0.01256204       0.01118402
V        6.18880033       9.25735378       0.07618442      -0.00240219      -0.42550615       0.76249500      -0.00366130      -0.03250026       0.00494213
V        7.72314167      10.67916107       1.62740803       0.01775890      -0.34186231      -0.50847438      -0.50479078      -0.16540164      -0.22539103
Cr       6.15781689       9.25522137       3.16849947      -0.19499223       0.25574014       0.29541568      -0.02946881       0.00738513       0.05158750
V        4.65999079      10.73096180       1.57292914      -0.42287666      -0.43901344      -0.28892879      -0.24087873      -0.16446257      -0.04580104
V        6.15436554       6.09555960       3.10559893      -0.51499569      -0.53190903       0.14570733       0.02975078       0.07238980      -0.01906214
V        7.62478495      10.64872360       4.66562033      -0.21430593       0.16507638      -0.26590667      -0.00360607      -0.01103587       0.02180308
V        4.62268925      10.69381618       4.64864731       0.43461892      -0.53964268      -0.12099408      -0.04079169       0.06399690      -0.03682605
Cr       6.17372656       9.19739342       6.09465790      -0.29900133      -0.06040721      -0.10025262       0.01904579      -0.04289669      -0.01797005
V        4.66257620       7.63529634       4.62119436       0.51856850      -0.36677631       0.07427142       0.00528622       0.01156270      -0.00627561
Ti       7.69187880       7.64147949       4.61050415       0.04453164      -0.41001946       0.28375663       0.01371486       0.00003301      -0.07583046
V        6.17117834       6.18689823       6.13599730      -0.73653922       0.59058581      -0.35664615      -0.03907627      -0.00992154      -0.01454104
V        7.60623693       7.74765491      10.73887444      -0.43892705       0.10152776      -0.19237785       0.12863405      -0.05919963      -0.11700945
V        6.22641468       9.21297836       9.13364124      -0.09491291      -0.17139175       0.43971294      -0.00896915       0.05584010       0.04364702
V        7.67856550      10.75464916      10.67180634      -0.29148120      -0.42632953      -0.33857956      -0.51991409      -0.87716269      -0.17257862
V        7.61699677      10.67560101       7.64467573       0.79687644      -0.17898123       0.26919892      -0.05366510      -0.04352887      -0.00760035
Cr       4.68087149       7.69816446      10.60215855      -0.26342258       0.05103057       0.37955954      -0.01602617       0.05961507      -0.00115665
Cr       6.14284325       6.29317856       9.06939125       0.27124571       0.66345542       0.11605863       0.02056788      -0.01755199       0.00861322
Ti       4.72961760      10.65001202      10.66668129      -0.42866492       0.27993713      -0.04132571      -0.28202707       0.03113491      -0.37934420
Cr       4.65490484      10.69402313       7.67354822       0.06476353      -0.10223770       0.25966376       0.02288801      -0.00577100      -0.03561605
Cr       4.70942879       7.78351784       7.55399036      -0.12987459      -0.65617537      -0.10831778      -0.38858128      -0.73323536       0.45595926
V        7.64842415       7.69228411       7.63415337      -0.32780682       0.27829326       0.67451795       0.01198644       0.04365081      -0.03548295
V        6.07332754       6.14384890      12.16870403      -0.16846634      -0.21079111      -0.61238153       0.09070860      -0.00508625      -0.05992998
V        4.67882729       7.68092537      13.69316483      -0.00919711      -0.55296009       0.20732502      -0.04090151       0.00270804      -0.00381884
V        7.66598511      10.65498924      13.73463154       0.22093420      -0.16466507       0.01312746      -0.04119299      -0.06957203       0.03217077
V        6.16355181       9.22215366      12.24015903      -0.01895721      -0.43729018       0.52813850       0.04798375      -0.00989124       0.03001086
V        7.63440037       7.61222649      13.68756485      -0.04106484       0.52607491      -0.07710788      -0.18475634       0.41862726       0.09615012
V        4.66161919      10.70911980      13.73635387       0.12559811      -0.02796253      -0.23631542       0.04021494      -0.04072403       0.00282659
121
Lattice="9.04215026885 0.0 0.0 0.0 12.0474946843 0.0 0.0 0.0 15.109870339" Properties=species:S:1:pos:R:3:force:R:3:forces:R:3 config_type=sia_aa parent_id=99999999 generation=9 step=66 variance=1.2163281440734863 loss=1.2163281440734863 energy=-1063.0143247048006 pbc="T T T"
V        1.63102531       1.69723463       1.55288327       0.12336864      -0.55775086       0.26652868      -0.02679166      -0.77635735      -0.08330683
Cr       0.19432187       3.15847993       3.09920144      -0.30471008       0.36888619      -0.26157671      -0.47588778       0.01426768       0.22992401
Cr       3.11382508       3.12545204       0.04667863      -0.14483782       0.42276353       0.19493684       0.06862459       0.06519186      -0.02753996
Ti       1.63616014       4.67678928       1.59174669       0.01524858      -0.46384834      -0.57507944       0.01853852      -0.01192355      -0.06577119
Cr       3.11913514       3.13524985       3.12978888      -0.08509405       0.23608282      -0.31136076       0.02781202       0.01683208       0.00247564
V        0.14857958       3.12374210       0.15361017       0.28828765      -0.55882773      -0.26871112      -0.08117175       0.00005955       0.00931507
Ti       3.13019443       0.08034490       3.10376310       0.37805461       0.63142304       0.02508166      -0.02766767       0.00327730       0.00342469
Cr       0.09365371       0.11220831       3.18385720       0.15998867      -0.27372486      -0.29410120       0.05040928      -0.05552676      -0.05705769
V        3.18311167       0.13598798       0.11070767      -0.35674453      -0.13707954      -0.19979723       0.02001425      -0.01101429      -0.03734673
V        0.08893960       0.11162581       0.16285293       0.39279499      -0.14148923       0.51735942      -0.02063852      -0.04568581       0.05335822
V        3.12593174       0.08489359       6.11072922       0.13511636       0.32327942       0.30897587       0.02499094       0.00134429      -0.03290179
V        0.11507349       3.12129736       6.14310503      -0.38956597      -0.09577405      -0.11714668      -0.34039971      -0.10310769      -0.28047237
V        3.08386946       3.14794183       6.10830259      -0.22865876       0.48156623       0.44052387      -0.03841890      -0.02662648      -0.05477174
Cr       1.67670226       1.64568102       4.70656872       0.11349473      -0.20055457      -0.22876322      -0.01188873      -0.01246509       0.01381216
V        1.62167263       4.64858198       4.67622709      -0.18164018      -0.13909514      -0.05803332       0.00396309      -0.03416893       0.00443116
Cr       0.08008023       0.07710777       6.12563276      -0.50040781       0.98748333      -0.12993435      -0.00469217       0.00401699       0.02834298
V        1.66785276       1.66983116      10.64248657       0.09284277       0.09780789      -0.04371548      -0.04919214      -0.04679194       0.03130142
Ti       1.72532499       4.64913750      10.68098068       0.24891965      -0.13255286      -0.27944305      -0.02489667       0.00989044       0.02657975
V        3.06422758       3.11073780       9.16393471      -0.24226432       0.20586085       0.21024379      -0.01050204      -0.01005025       0.02530090
Cr       0.15735322       0.08188266       9.18155479      -0.24410837       0.80602365       0.36256282      -0.00182605       0.02689964      -0.03977872
Ti       1.46287310       4.52364159       7.61135197       0.22888302       0.12901640       0.34742727       1.00009418       0.59042168       0.23097873
Ti       3.08857536       0.11110411       9.22121525       0.21686370      -0.44867982       0.95057070       0.01831344       0.02809529      -0.00175577
V        0.13013870       3.06669879       9.14419079       0.16815693      -0.09169343       0.01600119      -0.02998639       0.07896377       0.05839955
Ti       1.65588748       1.62871540       7.63985825      -0.07467103       0.04581711      -0.30137985      -0.02292605       0.01605474      -0.02542667
Cr       1.60844719       1.59161711      13.68947029       0.21551379       0.48192373       0.26571851       0.01510569       0.00436548      -0.00086529
V        0.07255623       3.02514291      12.12485313       0.28768070       0.04952769       0.07265712       0.05504038      -0.13839832       0.05753252
Ti       1.63688159       4.55572033      13.64939690      -0.07634035      -0.58774094      -0.14681849      -0.10208453       0.15354562      -0.09546214
Cr       0.10076086       0.09691064      12.09766293      -0.31214203      -0.21112271       0.16380953       0.02899371       0.01540442       0.01975312
Ti       3.13942099       3.10615659      12.12162209       0.15023462      -0.36455990       0.02632671      -0.00144428      -0.00477287      -0.02104980
Cr       4.57626629       1.55171132       7.58108044      -0.13825882       0.06305176      -0.06047647       0.08888253       0.06518149      -0.02736530
Ti       3.23037362       0.14404447      12.12954235       0.13594777       0.06708415       0.01240439       0.00861216      -0.01663098       0.03022297
V        1.62169886       7.66571426       1.67667365      -0.31573477      -0.43787051      -0.11670711      -0.04506206      -0.04329463      -0.07628608
Ti       0.08497433       9.17540264       0.15594502      -0.41727118       0.08700563       0.07074955       0.01143100      -0.04073600       0.03940679
V        1.49124897      10.72622490       1.58537233       0.12451573      -0.14523481       0.18908651       0.98124886      -0.38088369       0.12834582
Ti       3.16369128       9.23711872       0.18027607       0.30973414       0.10444106      -0.38234872      -0.01466304      -0.00555812      -0.02009604
Ti       3.14657855       6.08549023       0.13719335       0.21114748      -0.14190603       0.18283750      -0.02440942       0.00315125       0.00569294
Cr       3.13129950       6.13848972       3.12327242       0.24864179      -0.36286768       0.51937467       0.00469072       0.03729420      -0.01315207
V        0.18746141       6.14159822       3.15133119       0.02726826       0.40408804      -0.41071015      -0.05013474      -0.01045214       0.03305910
V        3.10467052       9.19700241       3.15191054      -0.19989548       0.23965565       0.39695800      -0.01452644       0.02874698       0.03947970
V        0.14258416       9.20553875       3.18392849       0.18811493      -0.03344905      -0.22755072       0.03586156      -0.00457594      -0.00256791
Ti       0.19036174       6.02162647       0.11365216       0.39416593       0.51259765       0.86201062      -0.25927132       0.65918940       0.61526966
Cr       0.13236901       6.17848063       6.15363550      -0.04190235      -0.08556814      -0.30348755       0.00315532       0.02687575       0.02694007
V        3.10403395       6.17752647       6.11362123       0.20860918      -0.05229005       0.17437783       0.00328733       0.01553364      -0.01716418
Cr       3.14339089       9.13196087       6.08734179      -0.19956182       0.02006404       0.05763686      -0.03572966       0.00599037      -0.02308360
V        1.62421441       7.65236473       4.63022184      -0.03611526       0.43978534      -0.11759395       0.00112797       0.03542881       0.00595561
V        1.64769614      10.65200520       4.64107895      -0.14714380       0.03495247       0.16214488       0.04186114      -0.08467834       0.00483064
V        0.12276296       9.15939808       6.15829182       0.35920676       0.03519844      -0.36619116      -0.00967580      -0.02906995      -0.02534695
Cr       1.70642745       7.60806799      10.57761192       0.37468230      -0.84800609      -0.05239464       0.01472539       0.00455429      -0.00114682
V        1.71544290      10.61423492      10.64947605       0.19461945       0.13702701       0.51475732       0.00628768      -0.02846786      -0.01720132
V        3.13181639       9.16278744       9.11927700      -0.60058442       0.52209752      -0.36571525       0.07380152       0.04399731      -0.01732568
Cr       1.66278362      10.61255169       7.63677216       0.34446019      -0.21103680      -0.27389820       0.00345624       0.01412516      -0.00530791
Cr       0.12517972       9.16405201       9.16675854      -0.42468140      -0.45623039      -0.31589002      -0.03068110       0.05902272      -0.00973082
Cr       0.07802133       6.20934677       9.12989712       0.26157478       0.32109079      -0.72278924      -0.27877948      -0.31747556      -0.47016132
V        1.67156649       7.64176512       7.63794184       0.21425658      -0.29311720      -0.27242643       0.00835702       0.01592562       0.02147403
V        3.13142204       6.13830948       9.08869457       0.13114898      -0.07698032       0.73799726      -0.00775878      -0.00441405      -0.02024172
Ti       1.85967386       7.82715321      14.00725079       0.07904385       0.27709667       0.22855053       0.00767698       0.00244515      -0.03232444
Ti       0.00820506       9.13519287      12.15353870       0.12510576       1.01786707      -0.07278165       0.41936535       0.90706587       0.07958388
Cr       1.60933936      10.68969917      13.73838997       0.43598145       0.45394227       0.10056438       0.03699056      -0.00282423      -0.01424287
Cr       3.22943950       9.22194767      12.16591263       0.70566422       0.22470573      -0.21984451      -0.02958512      -0.02186549      -0.00870218
Cr       0.60274094       6.60839128      12.62711525       0.04506623       0.36969481       0.03009417      -0.17339191      -0.07767978       0.01773265
V        3.25680304       6.17722654      12.19233704       0.39725823      -0.16635280       0.15196626      -0.03101370       0.01997650      -0.01910948
Ti       7.67345381       1.54755807       1.65287471       0.38612614       0.56528880       0.21656025      -0.14952171       0.78669822      -0.52999419
Ti       6.25461721       0.24616894      -0.03150951      -0.88431171      -0.58113194       0.15639659      -0.43244892      -1.14116764       0.55844587
V        7.70296860       4.61687279       1.65721965       0.02175996      -0.47104544       0.72155284      -0.01982644      -0.00125848      -0.01823598
Ti       6.21772909       3.08680677       3.12537789      -0.21428843       0.57691073      -0.30100857      -0.02295069       0.01031471       0.00639826
Ti       4.56426764       4.42915726       1.52613187      -0.17319122       0.54314502       0.39128033       0.93381041       1.08101869       0.43090412
Cr       4.70299244       1.56388819       1.60295796      -0.37853052       0.23090911      -0.15344603       0.02335147       0.06355252      -0.01632782
Ti       6.17726898       0.06684432       3.14022851       0.22981768      -0.16057531      -0.49639897       0.02069322      -0.03455443       0.06371781
V        6.23583364       3.11620283       0.09607849      -0.03868783       0.26985406      -0.74226529      -0.08826399       0.02707902       0.02456313
V        7.59757423       1.65720892       4.68611813       0.22401344      -0.64964792       0.14370252       0.06422023       0.03306965      -0.08865738
V        6.15232706       3.08462548       6.09422731       0.18916830       0.20292950      -0.03475224       0.04881744      -0.01432935      -0.10851481
Cr       7.64875555       4.67786312       4.62659025       0.17616632      -0.40628320       0.36241230      -0.02138279      -0.02794347      -0.02211003
Cr       4.70307016       4.64876986       4.70249557       0.23974770      -0.01977110      -0.36023129      -0.00794459      -0.06835461      -0.06555675
V        4.65116358       1.63453948       4.63616848      -0.47069947      -0.08962739      -0.23536131       0.00433296      -0.02122452       0.05029477
V        6.12486172       0.08295306       6.06975603      -0.02249125      -0.28372874      -0.16885494       0.27574956      -0.05847571       0.00416186
V        6.19366264       0.06704012       9.17989826      -0.20067602       0.26033203      -0.31201050       0.00162366       0.03716630      -0.01068947
V        4.55059671       4.67795944      10.64113998      -0.70661699      -0.00015184      -0.85645687       0.00864238      -0.03854579      -0.02620081
Ti       7.61931133       1.58960950       7.59067965       1.16094605      -0.03019936      -0.15976805       0.00130742      -0.07601409       0.01289821
V        7.63208199       1.58197486      10.62540913      -0.06716669      -0.45099652      -0.02603820       0.01104434      -0.00220705      -0.00806081
V        5.95380926       2.76434231       8.95365810      -0.34720181       0.45736300       0.13315015       0.15939498       1.11052537       0.03437378
Cr       7.12625837       4.19517756      10.14113903       0.43118762      -0.37569719       0.41132473      -0.03769750       0.02779689      -0.03108199
V        4.65856123       1.65329170      10.61655140      -0.55886785       0.05101520       0.06849468      -0.46812719      -0.33822519       0.25127786
V        7.57239151       4.58936119       7.55990982       0.33912771      -0.10549721      -0.31808309       0.05651641      -0.04249980      -0.14523770
Cr       4.59152985       4.62542105       7.59859180       0.07568992      -0.63458670      -0.42083452      -0.00818038      -0.00683839       0.01249167
V        8.39221573       5.31604290      11.46133232      -0.60199168      -0.78846703      -0.03709646      -0.03587397      -0.05267743      -0.14484607
Cr       6.15476274       0.13850890      12.22283459      -0.11559591       0.58186782      -0.11723473       0.26335844       0.08177190      -0.17941783
Ti       7.73906231       1.69565499      13.72506142      -0.08497016       0.48898807      -0.23145881      -0.04013645       0.00264295       0.07981759
Cr       4.65945053       4.61031580      13.62612724       0.19673503       0.02069819       0.45055840       0.09093475       0.01406511       0.00903944
V        4.65674925       1.67262328      13.68583775       0.23184581      -0.12327891       0.14271754       0.03301725      -0.05449111      -0.06913406
V        7.70510721       4.57457209      13.77298450      -0.13233864       0.38334763       0.75061219      -0.02215781      -0.01516666       0.01851500
V        6.17012930       3.10836077      12.20950508      -0.29975177      -0.50467037       0.23487786       0.02147070      -0.02091856      -0.04389497
Cr       4.68451738       7.73629284       1.63456643       0.26681468       0.26167138      -1.09056485      -0.01353008      -0.05734216      -0.00092344
Cr       6.18374681       6.07139587       0.12415533       0.17081276       0.53434300      -0.08044325      -0.01858035       0.02146773      -0.01104337
Cr       7.69180727       7.65618896       1.69496560      -0.00891712       0.49538828      -0.30624080      -0.00623882       0.05155828      -0.05266193
V        6.18679953       9.25478745       0.07045195      -0.00240219      -0.42550615       0.76249500      -0.04936366       0.02528770       0.03807897
V        7.71510792      10.67467117       1.62335324       0.01775890      -0.34186231      -0.50847438      -0.43801707      -0.10566413      -0.19744584
Cr       6.14691114       9.26104164       3.17432117      -0.19499223       0.25574014       0.29541568       0.00309246      -0.04692039       0.00671877
V        4.60319567      10.69005299       1.55330443      -0.42287666      -0.43901344      -0.28892879       0.03651905       0.02597433       0.01398400
V        6.15881062       6.11992216       3.11365104      -0.51499569      -0.53190903       0.14570733      -0.01239349      -0.06074978      -0.03658577
V        7.62613344      10.65090466       4.66650152      -0.21430593       0.16507638      -0.26590667      -0.01378013      -0.02476997       0.00780811
V        4.62079716      10.69423103       4.64681959       0.43461892      -0.53964268      -0.12099408      -0.05717423       0.03227355      -0.03288692
Cr       6.17440939       9.19692326       6.09738541      -0.29900133      -0.06040721      -0.10025262       0.02159233      -0.05530013      -0.02689735
V        4.66292667       7.63991165       4.62348795       0.51856850      -0.36677631       0.07427142      -0.01516798      -0.00033025      -0.00261978
Ti       7.69534159       7.64704609       4.61507034       0.04453164      -0.41001946       0.28375663       0.00263866      -0.01149763      -0.08677771
V        6.16328192       6.19004583       6.12852669      -0.73653922       0.59058581      -0.35664615      -0.00555483       0.01066711       0.05994605
V        7.61004162       7.74936056      10.73738289      -0.43892705       0.10152776      -0.19237785       0.12069269      -0.10555315      -0.12737419
V        6.22773838       9.21236229       9.12866497      -0.09491291      -0.17139175       0.43971294       0.00628672       0.06459223       0.04919132
V        7.67887735      10.74622631      10.66465759      -0.29148120      -0.42632953      -0.33857956      -0.53946465      -0.83197582      -0.12498091
V        7.62095308      10.67648602       7.64601088       0.79687644      -0.17898123       0.26919892      -0.05116124      -0.03008381      -0.03092773
Cr       4.69034719       7.69611263      10.60461903      -0.26342258       0.05103057       0.37955954      -0.03816395       0.04764889      -0.01860212
Cr       6.15073252       6.29618740       9.06297493       0.27124571       0.66345542       0.11605863      -0.00301033      -0.02208769       0.05076184
Ti       4.71874237      10.65540218      10.62146091      -0.42866492       0.27993713      -0.04132571      -0.17004737       0.02043112      -0.07761157
Cr       4.66061544      10.69320202       7.67298794       0.06476353      -0.10223770       0.25966376      -0.00957446      -0.03421853      -0.03407190
Cr       4.70611095       7.78832817       7.56500483      -0.12987459      -0.65617537      -0.10831778      -0.36124191      -0.77453053       0.38440698
V        7.64921856       7.68888664       7.63025045      -0.32780682       0.27829326       0.67451795       0.01199468       0.05259622      -0.03591806
V        6.09240437       6.15067911      12.16483212      -0.16846634      -0.21079111      -0.61238153       0.02805398      -0.00728059       0.00113670
V        4.66793203       7.67379141      13.68175316      -0.00919711      -0.55296009       0.20732502       0.04434311       0.02916831       0.00575809
V        7.67095280      10.66337681      13.73365784       0.22093420      -0.16466507       0.01312746      -0.05144076      -0.10387440       0.07182203
V        6.15642500       9.23120403      12.23127174      -0.01895721      -0.43729018       0.52813850       0.06650066      -0.00633367       0.00883231
V        7.59975958       7.68352890      13.71290493      -0.04106484       0.52607491      -0.07710788       0.03329542       0.04695890      -0.03124838
V        4.66460276      10.70768929      13.73345184       0.12559811      -0.02796253      -0.23631542       0.00750091      -0.03856002      -0.01766756
121
Lattice="9.04215026885 0.0 0.0 0.0 12.0474946843 0.0 0.0 0.0 15.109870339" Properties=species:S:1:pos:R:3:force:R:3:forces:R:3 config_type=sia_aa parent_id=99999999 generation=9 step=77 variance=1.2668522596359253 loss=1.2668522596359253 energy=-1063.1059257567222 pbc="T T T"
V        1.62885273       1.69340789       1.56176198       0.12336864      -0.55775086       0.26652868       0.00099232      -0.75804257      -0.12576699
Cr       0.20031749       3.16326952       3.09684396      -0.30471008       0.36888619      -0.26157671      -0.51005960      -0.02033761       0.25446421
Cr       3.11564517       3.12036562       0.04972771      -0.14483782       0.42276353       0.19493684       0.08268625       0.08759260      -0.03209790
Ti       1.64063919       4.67225599       1.59319532       0.01524858      -0.46384834      -0.57507944       0.01527930      -0.00505857      -0.05397312
Cr       3.12999701       3.13895249       3.13447452      -0.08509405       0.23608282      -0.31136076      -0.04019129      -0.02341042      -0.00211743
V        0.14663373       3.11940765       0.15779662       0.28828765      -0.55882773      -0.26871112      -0.07421549       0.00179970      -0.00030046
Ti       3.12541795       0.08030841       3.11255264       0.37805461       0.63142304       0.02508166       0.01076211       0.00998546      -0.00928177
Cr       0.09823982       0.10926037       3.18105316       0.15998867      -0.27372486      -0.29410120       0.01503021      -0.06552964      -0.05180114
V        3.18544483       0.13261226       0.10911313      -0.35674453      -0.13707954      -0.19979723       0.01842645       0.00327578      -0.02143017
V        0.08583640       0.11245094       0.16895990       0.39279499      -0.14148923       0.51735942       0.00771901      -0.06919776       0.03347303
V        3.12370157       0.08806671       6.13075161       0.13511636       0.32327942       0.30897587       0.05561919      -0.01134132      -0.11985573
V        0.06852590       3.11378026       6.09895897      -0.38956597      -0.09577405      -0.11714668       0.02442417      -0.01864487       0.04126007
V        3.08605552       3.13763261       6.11833096      -0.22865876       0.48156623       0.44052387      -0.06700654       0.04924379      -0.07284401
Cr       1.67800105       1.65123868       4.71538019       0.11349473      -0.20055457      -0.22876322      -0.00833781      -0.04534342      -0.01740858
V        1.62611294       4.64357710       4.67927408      -0.18164018      -0.13909514      -0.05803332      -0.03196212       0.00185488       0.01313161
Cr       0.08714049       0.07598289       6.13433170      -0.50040781       0.98748333      -0.12993435      -0.01445848       0.01667885      -0.00288795
V        1.65941310       1.66956425      10.64782333       0.09284277       0.09780789      -0.04371548      -0.00787449      -0.03829504      -0.00035900
Ti       1.71587241       4.65469551      10.69003010       0.24891965      -0.13255286      -0.27944305       0.05179026      -0.03014067      -0.02972893
V        3.06136513       3.10245204       9.15089703      -0.24226432       0.20586085       0.21024379      -0.01866087       0.02550216       0.08528080
Cr       0.15549864       0.07837832       9.18849659      -0.24410837       0.80602365       0.36256282      -0.00667680       0.03664578      -0.05060505
Ti       1.46231139       4.54865074       7.62586927       0.22888302       0.12901640       0.34742727       0.94109243       0.37494439       0.06533597
Ti       3.08729815       0.11830337       9.20983410       0.21686370      -0.44867982       0.95057070      -0.03144775       0.01541677       0.00933533
V        0.13095915       3.08624268       9.15264130       0.16815693      -0.09169343       0.01600119      -0.04881334       0.01365308      -0.00689228
Ti       1.65223789       1.63274658       7.64381933      -0.07467103       0.04581711      -0.30137985      -0.02474704       0.02993674      -0.03843935
Cr       1.61134613       1.59042799      13.68873692       0.21551379       0.48192373       0.26571851       0.00387640       0.00514049       0.01402113
V        0.07267790       3.02492619      12.13147068       0.28768070       0.04952769       0.07265712       0.04830801      -0.14469400       0.06177324
Ti       1.64095640       4.55043459      13.65133476      -0.07634035      -0.58774094      -0.14681849      -0.11888935       0.18654005      -0.10947064
Cr       0.10321367       0.09179407      12.09714317      -0.31214203      -0.21112271       0.16380953       0.00811570       0.02668063       0.02852216
Ti       3.13451862       3.11733603      12.11816406       0.15023462      -0.36455990       0.02632671       0.00961527      -0.07547665       0.02233821
Cr       4.60007858       1.54689360       7.56551361      -0.13825882       0.06305176      -0.06047647      -0.02180523       0.07675048       0.04614673
Ti       3.23288393       0.13934611      12.12800789       0.13594777       0.06708415       0.01240439      -0.01750765      -0.01247301       0.04224573
V        1.61720228       7.65796947       1.66982305      -0.31573477      -0.43787051      -0.11670711      -0.01437146      -0.01917098      -0.02309558
Ti       0.08492875       9.17846680       0.16065037      -0.41727118       0.08700563       0.07074955       0.02523277      -0.03396976       0.01599725
V        1.50274789      10.72639561       1.58614886       0.12451573      -0.14523481       0.18908651       0.88883388      -0.39262992       0.12638274
Ti       3.16626024       9.23761272       0.18132089       0.30973414       0.10444106      -0.38234872      -0.03231266      -0.02036904      -0.03362290
Ti       3.14453769       6.08434439       0.13662675       0.21114748      -0.14190603       0.18283750      -0.00373709       0.00385667      -0.01259411
Cr       3.13802814       6.12879086       3.12191200       0.24864179      -0.36286768       0.51937467      -0.05968088       0.08149343      -0.00292401
V        0.18360321       6.13736820       3.16431308       0.02726826       0.40408804      -0.41071015      -0.00785105       0.02090391      -0.05477885
V        3.10471988       9.19840908       3.15505171      -0.19989548       0.23965565       0.39695800      -0.02703100       0.00276557       0.01404242
V        0.14308147       9.20422554       3.18236446       0.18811493      -0.03344905      -0.22755072       0.02202189       0.00046849      -0.01681072
Ti       0.19691697       6.01030731       0.11712727       0.39416593       0.51259765       0.86201062      -0.27889407       0.71579003       0.59790820
Cr       0.13677008       6.18818235       6.16543293      -0.04190235      -0.08556814      -0.30348755      -0.01937871      -0.02184053      -0.04287539
V        3.10591125       6.17814302       6.11962461       0.20860918      -0.05229005       0.17437783      -0.00214563       0.00401688      -0.01432862
Cr       3.13779092       9.13310242       6.08197975      -0.19956182       0.02006404       0.05763686      -0.01435409       0.00948204      -0.00588760
V        1.62283099       7.65099669       4.62901354      -0.03611526       0.43978534      -0.11759395       0.00903004       0.02262795       0.01779239
V        1.64733779      10.65177155       4.64892006      -0.14714380       0.03495247       0.16214488       0.05083463      -0.08623948      -0.02259026
V        0.12210342       9.15856934       6.15639353       0.35920676       0.03519844      -0.36619116       0.00393893      -0.02421013      -0.02145481
Cr       1.72271073       7.61057758      10.57776070       0.37468230      -0.84800609      -0.05239464      -0.09879753      -0.05084841       0.01371440
V        1.71421850      10.60393906      10.63900185       0.19461945       0.13702701       0.51475732       0.00275133       0.01011996       0.00738800
V        3.12497211       9.15081787       9.10441875      -0.60058442       0.52209752      -0.36571525       0.10954728       0.12072746       0.02289371
Cr       1.65706372      10.61242294       7.63366461       0.34446019      -0.21103680      -0.27389820       0.02734789       0.01306534       0.02025922
Cr       0.12602811       9.16033936       9.16347218      -0.42468140      -0.45623039      -0.31589002      -0.05608755       0.05454291       0.00231435
Cr       0.07688963       6.19696045       9.13636398       0.26157478       0.32109079      -0.72278924      -0.25041443      -0.21769445      -0.50872797
V        1.67563307       7.63688278       7.64325142       0.21425658      -0.29311720      -0.27242643      -0.00338825       0.02579194       0.00449206
V        3.13474631       6.12939978       9.09385014       0.13114898      -0.07698032       0.73799726       0.00436225       0.02953208      -0.02660089
Ti       1.85810602       7.82736731      14.00078392       0.07904385       0.27709667       0.22855053      -0.00095541      -0.01192543      -0.01711988
Ti      -0.00072759       9.12468052      12.15942478       0.12510576       1.01786707      -0.07278165       0.50071752       0.96038699       0.03106567
Cr       1.61453748      10.68878365      13.73581886       0.43598145       0.45394227       0.10056438       0.02151496      -0.01789190       0.00036292
Cr       3.22735190       9.21830940      12.15204906       0.70566422       0.22470573      -0.21984451       0.01551356      -0.00440690       0.03915299
Cr       0.59318638       6.60483599      12.62645912       0.04506623       0.36969481       0.03009417      -0.08820970      -0.07669327       0.02761381
V        3.25139284       6.18136692      12.17984772       0.39725823      -0.16635280       0.15196626       0.02756970       0.00104171       0.04867455
Ti       7.67603302       1.54778814       1.65692306       0.38612614       0.56528880       0.21656025      -0.19207196       0.78001273      -0.55124885
Ti       6.25572777       0.23337077      -0.02905200      -0.88431171      -0.58113194       0.15639659      -0.46600243      -1.02660775       0.50579041
V        7.70157957       4.61491632       1.65885007       0.02175996      -0.47104544       0.72155284      -0.01849756       0.01216847      -0.04051653
Ti       6.20518780       3.09608245       3.12037683      -0.21428843       0.57691073      -0.30100857      -0.01570844      -0.03152490      -0.00976087
Ti       4.56813812       4.43198204       1.53144372      -0.17319122       0.54314502       0.39128033       0.92509997       1.07153535       0.38081014
Cr       4.70185995       1.56259394       1.60027504      -0.37853052       0.23090911      -0.15344603       0.01522222       0.04596921       0.00209960
Ti       6.17523909       0.06713148       3.14698410       0.22981768      -0.16057531      -0.49639897       0.03277827      -0.05214016       0.02165917
V        6.22023439       3.11862040       0.09801004      -0.03868783       0.26985406      -0.74226529       0.01559807       0.00122779       0.00752322
V        7.58971596       1.66107178       4.67835808       0.22401344      -0.64964792       0.14370252       0.12701654       0.00088733      -0.08960899
V        6.15958500       3.08326268       6.08262062       0.18916830       0.20292950      -0.03475224       0.01030909      -0.02191912      -0.05919620
Cr       7.64277697       4.68010902       4.62164450       0.17616632      -0.40628320       0.36241230      -0.00985792      -0.00297803      -0.01156948
Cr       4.70033455       4.65317297       4.70628309       0.23974770      -0.01977110      -0.36023129      -0.00682870      -0.09187777      -0.05339567
V        4.65175056       1.62955689       4.64263630      -0.47069947      -0.08962739      -0.23536131       0.01103473      -0.01535570       0.02773026
V        6.16354179       0.06855412       6.07078791      -0.02249125      -0.28372874      -0.16885494       0.03311312       0.01295529       0.00253417
V        6.19474030       0.07379516       9.17583084      -0.20067602       0.26033203      -0.31201050      -0.01260989      -0.00363901       0.01466731
V        4.54228497       4.66573620      10.63444233      -0.70661699      -0.00015184      -0.85645687       0.06193095      -0.00061813      -0.01092911
Ti       7.62371969       1.58414590       7.59374762       1.16094605      -0.03019936      -0.15976805       0.01164833       0.00586642      -0.00439602
V        7.63371658       1.58940113      10.62673569      -0.06716669      -0.45099652      -0.02603820       0.03343135       0.00621440      -0.03922673
V        5.95221138       2.76591611       8.95415115      -0.34720181       0.45736300       0.13315015       0.14508322       1.07380378       0.12634856
Cr       7.13026190       4.20730829      10.13986492       0.43118762      -0.37569719       0.41132473      -0.12237684      -0.06712560      -0.13517869
V        4.63143396       1.63740897      10.64225483      -0.55886785       0.05101520       0.06849468      -0.27474245      -0.21636927       0.04354612
V        7.57959175       4.59868622       7.54515839       0.33912771      -0.10549721      -0.31808309       0.01095091      -0.10182075      -0.05115995
Cr       4.60156345       4.61741829       7.59544086       0.07568992      -0.63458670      -0.42083452      -0.06052182       0.00739436       0.02855420
V        8.39750290       5.31150913      11.45919228      -0.60199168      -0.78846703      -0.03709646      -0.02160082      -0.05161218      -0.09311792
Cr       6.18727732       0.15049469      12.20451260      -0.11559591       0.58186782      -0.11723473       0.01384837      -0.00492792      -0.03535801
Ti       7.73757887       1.69716156      13.73601532      -0.08497016       0.48898807      -0.23145881      -0.02398407       0.01354929       0.04173268
Cr       4.67067480       4.61551666      13.62065029       0.19673503       0.02069819       0.45055840       0.02069902       0.01813761       0.00798448
V        4.66266537       1.67422283      13.68648434       0.23184581      -0.12327891       0.14271754       0.04031888      -0.07007395      -0.08553654
V        7.70818996       4.58256483      13.77084827      -0.13233864       0.38334763       0.75061219      -0.03621922      -0.07168037       0.05802022
V        6.17552710       3.11797428      12.19965458      -0.29975177      -0.50467037       0.23487786      -0.02548738      -0.07624822       0.00569386
Cr       4.68040943       7.72565126       1.63905728       0.26681468       0.26167138      -1.09056485      -0.01163963      -0.01391794      -0.04020808
Cr       6.19107962       6.07919741       0.11887176       0.17081276       0.53434300      -0.08044325      -0.02072899       0.02548087      -0.00934670
Cr       7.69283342       7.65913582       1.69499922      -0.00891712       0.49538828      -0.30624080       0.00155638       0.02861894      -0.05083051
V        6.17371941       9.26630688       0.07414558      -0.00240219      -0.42550615       0.76249500       0.01188377      -0.04664251      -0.00375449
V        7.68972492      10.67101765       1.60627580       0.01775890      -0.34186231      -0.50847438      -0.28369233      -0.08088215      -0.07744569
Cr       6.14371920       9.25180340       3.16883540      -0.19499223       0.25574014       0.29541568      -0.01448943       0.00253274       0.02722228
V        4.60407686      10.69963074       1.55807900      -0.42287666      -0.43901344      -0.28892879       0.01498952      -0.03143851       0.00246500
V        6.16116381       6.11756992       3.10865903      -0.51499569      -0.53190903       0.14570733      -0.02173357      -0.04541775      -0.00014476
V        7.62935686      10.64013577       4.66445875      -0.21430593       0.16507638      -0.26590667      -0.00377049       0.01626249       0.00782481
V        4.62384653      10.68991661       4.64793015       0.43461892      -0.53964268      -0.12099408      -0.05433208       0.03895615      -0.02504819
Cr       6.17717791       9.19482803       6.09630537      -0.29900133      -0.06040721      -0.10025262       0.00564361      -0.04273727      -0.03824545
V        4.65725088       7.63763618       4.62414598       0.51856850      -0.36677631       0.07427142       0.01997447       0.00877559      -0.00409167
Ti       7.69403362       7.64857149       4.61808538       0.04453164      -0.41001946       0.28375663       0.01465861      -0.03332026      -0.08801459
V        6.16470575       6.19699430       6.13930368      -0.73653922       0.59058581      -0.35664615      -0.00943469      -0.00149159      -0.00965223
V        7.62161589       7.73550177      10.71945572      -0.43892705       0.10152776      -0.19237785       0.03906211      -0.03316116      -0.03137752
V        6.21755934       9.21490669       9.13182449      -0.09491291      -0.17139175       0.43971294       0.06045156       0.04673614       0.01930300
V        7.66649580      10.73652554      10.66564941      -0.29148120      -0.42632953      -0.33857956      -0.46775445      -0.78304625      -0.15771842
V        7.62640142      10.67719650       7.64735079       0.79687644      -0.17898123       0.26919892      -0.05245355      -0.06610517      -0.02176930
Cr       4.69130230       7.69067812      10.60281181      -0.26342258       0.05103057       0.37955954      -0.01824628       0.07014941      -0.00258527
Cr       6.14883137       6.28942347       9.06677437       0.27124571       0.66345542       0.11605863      -0.00766566       0.01708835      -0.00410264
Ti       4.69189930      10.66787910      10.59471226      -0.42866492       0.27993713      -0.04132571       0.00369962      -0.02114633       0.05969968
Cr       4.65939379      10.69586849       7.67087698       0.06476353      -0.10223770       0.25966376       0.01519957      -0.05014686      -0.05378100
Cr       4.70541620       7.80150604       7.56790113      -0.12987459      -0.65617537      -0.10831778      -0.35259208      -0.85384226       0.37391555
V        7.65000772       7.69412804       7.63453245      -0.32780682       0.27829326       0.67451795      -0.00127238       0.02887071      -0.02436151
V        6.10739613       6.15917873      12.16911697      -0.16846634      -0.21079111      -0.61238153      -0.01858529      -0.01881750      -0.02968663
V        4.67203522       7.67763805      13.67268658      -0.00919711      -0.55296009       0.20732502       0.02039249       0.03841458       0.02129629
V        7.67031097      10.66263962      13.73895741       0.22093420      -0.16466507       0.01312746      -0.03315569      -0.07218008       0.02414096
V        6.17246628       9.23018837      12.23437023      -0.01895721      -0.43729018       0.52813850      -0.07358888       0.01728890      -0.06484516
V        7.61357117       7.69736528      13.70592690      -0.04106484       0.52607491      -0.07710788      -0.02979617      -0.00487521       0.04376646
V        4.66380787      10.71013260      13.72193909       0.12559811      -0.02796253      -0.23631542       0.04315679      -0.02558825      -0.00582990
121
Lattice="9.04215026885 0.0 0.0 0.0 12.0474946843 0.0 0.0 0.0 15.109870339" Properties=species:S:1:pos:R:3:force:R:3:forces:R:3 config_type=sia_aa parent_id=99999999 generation=9 step=88 variance=1.2978562116622925 loss=1.2978562116622925 energy=-1063.1099629641187 pbc="T T T"
V        1.63154900       1.67543364       1.55784559       0.12336864      -0.55775086       0.26652868       0.01643059      -0.64447880      -0.13493830
Cr       0.21570049       3.16622519       3.09418154      -0.30471008       0.36888619      -0.26157671      -0.59715444      -0.05039893       0.26537603
Cr       3.13428760       3.13225842       0.04433445      -0.14483782       0.42276353       0.19493684      -0.03933232       0.02368630      -0.04175916
Ti       1.64907146       4.67562914       1.59575069       0.01524858      -0.46384834      -0.57507944      -0.00908425      -0.02685182      -0.07817940
Cr       3.12542510       3.13555431       3.13167214      -0.08509405       0.23608282      -0.31136076      -0.00049919      -0.01786996       0.00471385
V        0.14723480       3.11990499       0.15789098       0.28828765      -0.55882773      -0.26871112      -0.04920719      -0.00288637       0.01446576
Ti       3.12791038       0.07708728       3.11585522       0.37805461       0.63142304       0.02508166      -0.00197555       0.01156017      -0.01538060
Cr       0.09368099       0.09818424       3.17758083       0.15998867      -0.27372486      -0.29410120       0.02986376      -0.04365654      -0.04860128
V        3.18947792       0.13132432       0.11326827      -0.35674453      -0.13707954      -0.19979723       0.00517479      -0.01149866      -0.04032418
V        0.08677028       0.10746747       0.17259882       0.39279499      -0.14148923       0.51735942      -0.01707627      -0.04998125       0.02709937
V        3.12723589       0.08476284       6.12770462       0.13511636       0.32327942       0.30897587       0.04936413       0.01584933      -0.09677550
V        0.07094114       3.12082911       6.11102819      -0.38956597      -0.09577405      -0.11714668       0.01520022      -0.03777675      -0.07806575
V        3.08272576       3.14484286       6.11753368      -0.22865876       0.48156623       0.44052387      -0.03479088       0.01529960      -0.04672752
Cr       1.67903519       1.65350521       4.71432829       0.11349473      -0.20055457      -0.22876322      -0.02018647      -0.06016040      -0.00089117
V        1.61722255       4.64751196       4.68316603      -0.18164018      -0.13909514      -0.05803332       0.00090683       0.00444876       0.00932622
Cr       0.08882549       0.07967824       6.13082361      -0.50040781       0.98748333      -0.12993435      -0.00518362      -0.00496205      -0.00466702
V        1.66292632       1.66965795      10.63826561       0.09284277       0.09780789      -0.04371548      -0.05449190      -0.05345773       0.04174675
Ti       1.72359884       4.64792013      10.68043232       0.24891965      -0.13255286      -0.27944305      -0.02585362       0.00550469       0.00962056
V        3.06265879       3.10782003       9.15469742      -0.24226432       0.20586085       0.21024379      -0.00855853      -0.01658591       0.06828079
Cr       0.15323856       0.07861936       9.18347359      -0.24410837       0.80602365       0.36256282      -0.01186358       0.02289748      -0.02429993
Ti       1.46922517       4.55086613       7.62494993       0.22888302       0.12901640       0.34742727       0.90575695       0.40580973       0.08621411
Ti       3.07944989       0.10605804       9.20814896       0.21686370      -0.44867982       0.95057070       0.00834620       0.06801703      -0.00052983
V        0.12301210       3.08098221       9.13637447       0.16815693      -0.09169343       0.01600119      -0.02245580       0.04037682       0.04261485
Ti       1.65404117       1.64031029       7.63546991      -0.07467103       0.04581711      -0.30137985      -0.02256121       0.00514608      -0.00440592
Cr       1.61095798       1.58790863      13.69985485       0.21551379       0.48192373       0.26571851       0.01257970       0.02784318      -0.00290559
V        0.07608762       3.02181768      12.12904072       0.28768070       0.04952769       0.07265712       0.03377884      -0.13042119       0.06130424
Ti       1.64111817       4.56465912      13.63910389      -0.07634035      -0.58774094      -0.14681849      -0.07950457       0.07220730      -0.03883389
Cr       0.11155476       0.09661575      12.09451199      -0.31214203      -0.21112271       0.16380953      -0.04331844       0.02460027       0.02321327
Ti       3.13159227       3.10156131      12.12989521       0.15023462      -0.36455990       0.02632671       0.03110105       0.02175165      -0.05106552
Cr       4.60099411       1.55307698       7.57526350      -0.13825882       0.06305176      -0.06047647      -0.00548494       0.04958969       0.00080083
Ti       3.22188830       0.13079992      12.13562584       0.13594777       0.06708415       0.01240439      -0.00569420       0.00467929       0.04343627
V        1.61571622       7.65964031       1.67915928      -0.31573477      -0.43787051      -0.11670711      -0.01259212      -0.02211998      -0.06679744
Ti       0.08419558       9.18777370       0.16467923      -0.41727118       0.08700563       0.07074955       0.03356570      -0.06662972       0.03101937
V        1.52007651      10.73383617       1.59145653       0.12451573      -0.14523481       0.18908651       0.75218153      -0.47478741       0.08087060
Ti       3.16124320       9.22919464       0.17140517       0.30973414       0.10444106      -0.38234872      -0.00363263       0.01917223       0.01355659
Ti       3.14669061       6.09215307       0.13410649       0.21114748      -0.14190603       0.18283750      -0.01919843      -0.01183323       0.00463280
Cr       3.13767195       6.12838888       3.12524104       0.24864179      -0.36286768       0.51937467      -0.04967180       0.06586709      -0.00541232
V        0.16978912       6.13818264       3.17109179       0.02726826       0.40408804      -0.41071015       0.08295833       0.02054594      -0.09358831
V        3.10201669       9.19590950       3.15526009      -0.19989548       0.23965565       0.39695800      -0.00936850      -0.00768001       0.01022131
V        0.14015219       9.20936108       3.18083811       0.18811493      -0.03344905      -0.22755072       0.02929231      -0.03394281       0.00433662
Ti       0.20362568       5.99915457       0.13055634       0.39416593       0.51259765       0.86201062      -0.28402358       0.78535533       0.51155835
Cr       0.12594858       6.19248962       6.16527605      -0.04190235      -0.08556814      -0.30348755       0.02875939      -0.05163191      -0.03134508
V        3.10498500       6.17915440       6.12058163       0.20860918      -0.05229005       0.17437783       0.00254205       0.01064365      -0.01392628
Cr       3.14547777       9.12894630       6.08337355      -0.19956182       0.02006404       0.05763686      -0.03764636       0.02708804      -0.00797358
V        1.62277603       7.64681673       4.63142824      -0.03611526       0.43978534      -0.11759395       0.00408072       0.05427039       0.01978238
V        1.65157938      10.64360714       4.65514660      -0.14714380       0.03495247       0.16214488       0.02880181      -0.04812566      -0.05287884
V        0.12702900       9.16102791       6.16040421       0.35920676       0.03519844      -0.36619116      -0.00957210      -0.04742170      -0.04340861
Cr       1.70785201       7.60750866      10.57678986       0.37468230      -0.84800609      -0.05239464      -0.00432133      -0.01839397       0.02056450
V        1.71440399      10.60021400      10.64564705       0.19461945       0.13702701       0.51475732      -0.00890393       0.02077746      -0.01503953
V        3.12917829       9.16063404       9.11777687      -0.60058442       0.52209752      -0.36571525       0.07907176       0.06875857      -0.03458231
Cr       1.66003573      10.60435104       7.63271236       0.34446019      -0.21103680      -0.27389820       0.03274418       0.05552121       0.02616639
Cr       0.12133361       9.16212463       9.16601562      -0.42468140      -0.45623039      -0.31589002      -0.02910733       0.04782631      -0.00704334
Cr       0.08194727       6.20518637       9.12997723       0.26157478       0.32109079      -0.72278924      -0.28450257      -0.29032823      -0.48182389
V        1.67545104       7.64207268       7.64235020       0.21425658      -0.29311720      -0.27242643       0.00079212       0.01933827       0.00674252
V        3.13331628       6.14411211       9.09213829       0.13114898      -0.07698032       0.73799726       0.01549502      -0.03478104      -0.01672960
Ti       1.85329878       7.82776165      13.99032307       0.07904385       0.27709667       0.22855053      -0.01252030      -0.02038375       0.00441968
Ti      -0.00268797       9.10973454      12.16233730       0.12510576       1.01786707      -0.07278165       0.52008212       1.06686211       0.03005487
Cr       1.61291742      10.68309307      13.73370552       0.43598145       0.45394227       0.10056438       0.02919535      -0.00368423       0.00402879
Cr       3.23929453       9.22474957      12.14707279       0.70566422       0.22470573      -0.21984451      -0.04281789      -0.05036315       0.08710170
Cr       0.58789831       6.60285950      12.62266636       0.04506623       0.36969481       0.03009417      -0.10839982      -0.10085930       0.07434930
V        3.24340892       6.18906307      12.17209530       0.39725823      -0.16635280       0.15196626       0.08120366      -0.01921569       0.06786999
Ti       7.67744732       1.55322158       1.67317986       0.38612614       0.56528880       0.21656025      -0.18777442       0.75643623      -0.65035743
Ti       6.26450348       0.23973525      -0.02851359      -0.88431171      -0.58113194       0.15639659      -0.52788520      -1.05819345       0.50618601
V        7.69647551       4.61613703       1.65764987       0.02175996      -0.47104544       0.72155284       0.02858498       0.01388875      -0.02730165
Ti       6.20678854       3.10274005       3.12126541      -0.21428843       0.57691073      -0.30100857      -0.02265919      -0.07292807      -0.01282230
Ti       4.58340597       4.42043495       1.52950490      -0.17319122       0.54314502       0.39128033       0.87199128       1.16558075       0.40457034
Cr       4.70268345       1.56187379       1.60309815      -0.37853052       0.23090911      -0.15344603       0.02925292       0.04428799      -0.01112304
Ti       6.17213964       0.06399471       3.13867497       0.22981768      -0.16057531      -0.49639897       0.02805638      -0.06629957       0.06301925
V        6.21488428       3.12507176       0.09990759      -0.03868783       0.26985406      -0.74226529       0.05942633      -0.02631774       0.00471108
V        7.59284067       1.66071284       4.66359043       0.22401344      -0.64964792       0.14370252       0.12383968       0.00437849      -0.03021052
V        6.15761614       3.07699394       6.07394600       0.18916830       0.20292950      -0.03475224       0.03112471       0.01741479      -0.04053233
Cr       7.64133978       4.68155193       4.61996174       0.17616632      -0.40628320       0.36241230       0.00354955      -0.03190415      -0.00199252
Cr       4.69696236       4.65229940       4.71036816       0.23974770      -0.01977110      -0.36023129      -0.00844557      -0.09058379      -0.07914965
V        4.65198040       1.62685454       4.64323092      -0.47069947      -0.08962739      -0.23536131       0.00353722      -0.00386145       0.01944719
V        6.16727448       0.07621911       6.06470871      -0.02249125      -0.28372874      -0.16885494       0.00820044      -0.03618537       0.02540863
V        6.18608189       0.06797749       9.18143082      -0.20067602       0.26033203      -0.31201050       0.02165877       0.03859118      -0.01784413
V        4.54050112       4.66171217      10.63777065      -0.70661699      -0.00015184      -0.85645687       0.05465276       0.00511023      -0.01769620
Ti       7.62635946       1.58200717       7.58298635       1.16094605      -0.03019936      -0.15976805      -0.00137226      -0.01148893       0.00184508
V        7.63374043       1.59732020      10.61812782      -0.06716669      -0.45099652      -0.02603820       0.02182411      -0.04691973      -0.02314590
V        5.98426914       2.77501130       8.94524097      -0.34720181       0.45736300       0.13315015      -0.08892846       0.96478051       0.22184810
Cr       7.12998867       4.21478701      10.14466763       0.43118762      -0.37569719       0.41132473      -0.10971092      -0.08874735      -0.11454533
V        4.60120392       1.61185443      10.64053345      -0.55886785       0.05101520       0.06849468      -0.05104405      -0.04961368      -0.01265509
V        7.57171774       4.59499121       7.54186201       0.33912771      -0.10549721      -0.31808309       0.04938599      -0.07345092      -0.06708319
Cr       4.60712242       4.62112665       7.59991741       0.07568992      -0.63458670      -0.42083452      -0.09374325      -0.00472137       0.01178356
V        8.39292145       5.30596352      11.46441841      -0.60199168      -0.78846703      -0.03709646       0.07423800      -0.02145317      -0.11532878
Cr       6.19056082       0.16614825      12.20192242      -0.11559591       0.58186782      -0.11723473      -0.00403158      -0.05228171      -0.01825668
Ti       7.73989344       1.70656836      13.74176025      -0.08497016       0.48898807      -0.23145881      -0.00314389      -0.01475962       0.01979591
Cr       4.67058325       4.62955141      13.62105083       0.19673503       0.02069819       0.45055840       0.03506990      -0.01357553      -0.04327096
V        4.66393661       1.67062807      13.68411732       0.23184581      -0.12327891       0.14271754       0.01879849      -0.04688326      -0.05933335
V        7.70438480       4.58152199      13.77378273      -0.13233864       0.38334763       0.75061219      -0.01339392      -0.06086594       0.04769868
V        6.16563129       3.10782433      12.19896317      -0.29975177      -0.50467037       0.23487786      -0.01785748      -0.02690720      -0.00938336
Cr       4.67470980       7.72248411       1.63896883       0.26681468       0.26167138      -1.09056485      -0.01502458      -0.00245823      -0.03978061
Cr       6.19497299       6.09083891       0.11714537       0.17081276       0.53434300      -0.08044325      -0.02007795      -0.00771983      -0.01250207
Cr       7.69735718       7.65702534       1.69974661      -0.00891712       0.49538828      -0.30624080      -0.02019291       0.05201651      -0.07222579
V        6.17204475       9.24968433       0.07540406      -0.00240219      -0.42550615       0.76249500       0.01132261       0.04262963      -0.03200074
V        7.64548349      10.65214252       1.59484017       0.01775890      -0.34186231      -0.50847438      -0.01589707       0.01580646      -0.02331599
Cr       6.13699961       9.24473190       3.17615533      -0.19499223       0.25574014       0.29541568       0.00502851       0.01846111      -0.01938236
V        4.60265732      10.69290829       1.55732179      -0.42287666      -0.43901344      -0.28892879       0.01705806      -0.02348913      -0.01208035
V        6.16337109       6.11645269       3.10484385      -0.51499569      -0.53190903       0.14570733      -0.04229471      -0.05310951       0.01847551
V        7.62971115      10.64336395       4.66626215      -0.21430593       0.16507638      -0.26590667      -0.01937690      -0.01263385      -0.01861490
V        4.62458134      10.68712234       4.64815140       0.43461892      -0.53964268      -0.12099408      -0.04559982       0.05092032      -0.02251104
Cr       6.18278599       9.19610786       6.09664202      -0.29900133      -0.06040721      -0.10025262       0.00526064      -0.03607669      -0.03365673
V        4.66874361       7.63613796       4.62188816       0.51856850      -0.36677631       0.07427142      -0.05951405      -0.00407716       0.00536919
Ti       7.69228315       7.65048361       4.61891174       0.04453164      -0.41001946       0.28375663       0.01952446      -0.03126532      -0.08559667
V        6.16190243       6.19617224       6.13022804      -0.73653922       0.59058581      -0.35664615      -0.00627102      -0.00475823       0.05802187
V        7.63070631       7.72883558      10.70898056      -0.43892705       0.10152776      -0.19237785      -0.00527090      -0.02269428       0.02620754
V        6.22835493       9.21098518       9.13016510      -0.09491291      -0.17139175       0.43971294      -0.00187330       0.08122944       0.02510054
V        7.65703392      10.73868465      10.67671585      -0.29148120      -0.42632953      -0.33857956      -0.39524192      -0.77899331      -0.22332297
V        7.62714148      10.67536449       7.64618158       0.79687644      -0.17898123       0.26919892      -0.05192581      -0.04329884      -0.01383048
Cr       4.69117165       7.70467138      10.60213470      -0.26342258       0.05103057       0.37955954      -0.01249646      -0.00063883      -0.00417015
Cr       6.14641428       6.28398895       9.07666874       0.27124571       0.66345542       0.11605863      -0.02137905       0.06961912      -0.06849108
Ti       4.69316912      10.66871548      10.61118126      -0.42866492       0.27993713      -0.04132571       0.01386631       0.00005846      -0.01843451
Cr       4.66711664      10.69333744       7.66609907       0.06476353      -0.10223770       0.25966376      -0.01095285      -0.00076963      -0.00845270
Cr       4.70454550       7.81581974       7.56830311      -0.12987459      -0.65617537      -0.10831778      -0.33030319      -0.93377131       0.38055715
V        7.64844751       7.68599701       7.63025570      -0.32780682       0.27829326       0.67451795       0.01423015       0.06671676       0.00113290
V        6.11033201       6.16207075      12.16270351      -0.16846634      -0.21079111      -0.61238153      -0.05524023      -0.01453001       0.01262892
V        4.67519855       7.68390560      13.67125797      -0.00919711      -0.55296009       0.20732502       0.00856157       0.02409491       0.00226061
V        7.67409611      10.67013454      13.73345184       0.22093420      -0.16466507       0.01312746      -0.04576538      -0.09599541       0.05694165
V        6.17638159       9.23590755      12.22718239      -0.01895721      -0.43729018       0.52813850      -0.07818826       0.01241600      -0.01618798
V        7.62359858       7.70615530      13.71101665      -0.04106484       0.52607491      -0.07710788      -0.05662297      -0.05375853       0.02432259
V        4.67069054      10.71806049      13.71822166       0.12559811      -0.02796253      -0.23631542       0.02274191      -0.05458368       0.02266797
121
Lattice="9.04215026885 0.0 0.0 0.0 12.0474946843 0.0 0.0 0.0 15.109870339" Properties=species:S:1:pos:R:3:force:R:3:forces:R:3 config_type=sia_aa parent_id=99999999 generation=9 step=99 variance=1.2969114780426025 loss=1.2969114780426025 energy=-1063.126420597115 pbc="T T T"
V        1.63152194       1.65247703       1.56307578       0.12336864      -0.55775086       0.26652868       0.03883102      -0.48505121      -0.17261654
Cr       0.21637642       3.17697692       3.09564519      -0.30471008       0.36888619      -0.26157671      -0.57438564      -0.14593834       0.24357584
Cr       3.13141537       3.13237810       0.04528344      -0.14483782       0.42276353       0.19493684       0.01455500       0.04410526      -0.02055447
Ti       1.65198267       4.67275572       1.59236825       0.01524858      -0.46384834      -0.57507944       0.00221345      -0.01886958      -0.06179354
Cr       3.12467504       3.13326097       3.12628698      -0.08509405       0.23608282      -0.31136076       0.01412918      -0.01116550       0.00117202
V        0.15549377       3.11949921       0.16127011       0.28828765      -0.55882773      -0.26871112      -0.08428480       0.00566557       0.01813210
Ti       3.12989497       0.07720156       3.11386943       0.37805461       0.63142304       0.02508166       0.00181649      -0.00012884      -0.00180002
Cr       0.09945727       0.09265524       3.16894484       0.15998867      -0.27372486      -0.29410120      -0.01262796      -0.02587069       0.00816516
V        3.19009328       0.12998460       0.11236768      -0.35674453      -0.13707954      -0.19979723       0.02160887       0.00260949      -0.03285383
V        0.08513398       0.11210099       0.17660186       0.39279499      -0.14148923       0.51735942       0.00835381      -0.07330516       0.02155120
V        3.12516308       0.09038818       6.13098955       0.13511636       0.32327942       0.30897587       0.05992647       0.00204312      -0.10215285
V        0.07248192       3.11478114       6.09827042      -0.38956597      -0.09577405      -0.11714668       0.01506572       0.02075934       0.02138201
V        3.08212876       3.14602518       6.11978579      -0.22865876       0.48156623       0.44052387      -0.05484762       0.01738900      -0.04402909
Cr       1.67885542       1.64910078       4.71259499       0.11349473      -0.20055457      -0.22876322      -0.01535959      -0.03607791      -0.01289322
V        1.61333048       4.65508318       4.69139719      -0.18164018      -0.13909514      -0.05803332       0.01996762      -0.05508411      -0.01865306
Cr       0.08742136       0.07864731       6.13111639      -0.50040781       0.98748333      -0.12993435      -0.00172271      -0.02001067      -0.00181522
V        1.65688241       1.66939771      10.64312553       0.09284277       0.09780789      -0.04371548      -0.02258341      -0.05652940       0.02784808
Ti       1.71983457       4.64141512      10.67983723       0.24891965      -0.13255286      -0.27944305      -0.00100987       0.02750098       0.00741615
V        3.05955577       3.10205507       9.15153980      -0.24226432       0.20586085       0.21024379      -0.01146248       0.01980430       0.07723819
Cr       0.15542497       0.08395287       9.18744469      -0.24410837       0.80602365       0.36256282      -0.00849697       0.02011308      -0.05649727
Ti       1.46178293       4.57042122       7.63662529       0.22888302       0.12901640       0.34742727       0.95348954       0.27278727       0.00140145
Ti       3.08174753       0.11322038       9.21105671       0.21686370      -0.44867982       0.95057070      -0.00291723       0.03234604      -0.00333374
V        0.12056962       3.08957148       9.13853073       0.16815693      -0.09169343       0.01600119      -0.03006017       0.02063800       0.02309064
Ti       1.65607285       1.64249086       7.63522911      -0.07467103       0.04581711      -0.30137985      -0.03654972       0.01854463      -0.00230901
Cr       1.60983109       1.59372401      13.70034504       0.21551379       0.48192373       0.26571851       0.00994776      -0.01122801      -0.00704048
V        0.07176021       3.01960993      12.12984753       0.28768070       0.04952769       0.07265712       0.04281373      -0.13247040       0.06812698
Ti       1.63537514       4.56744576      13.63487244      -0.07634035      -0.58774094      -0.14681849      -0.02630770       0.03763912      -0.00756626
Cr       0.10169899       0.10019559      12.10320759      -0.31214203      -0.21112271       0.16380953       0.03951600       0.02424401       0.01729713
Ti       3.13101220       3.09748220      12.12943363       0.15023462      -0.36455990       0.02632671       0.02963403       0.02177212      -0.06027291
Cr       4.60702324       1.56276989       7.57734823      -0.13825882       0.06305176      -0.06047647      -0.00889688       0.02335706       0.00025590
Ti       3.22605824       0.12356614      12.14329338       0.13594777       0.06708415       0.01240439      -0.04119264       0.02162561       0.01655131
V        1.61858451       7.66082954       1.67626286      -0.31573477      -0.43787051      -0.11670711      -0.01395200      -0.00019967      -0.04448114
Ti       0.08376922       9.18741894       0.16937903      -0.41727118       0.08700563       0.07074955       0.04395846      -0.04790127       0.00302533
V        1.52992427      10.73614311       1.59364986       0.12451573      -0.14523481       0.18908651       0.69946784      -0.51022863       0.06573859
Ti       3.15543437       9.23170662       0.16936356       0.30973414       0.10444106      -0.38234872       0.01855707       0.01316731       0.00812020
Ti       3.14596415       6.09183073       0.13243684       0.21114748      -0.14190603       0.18283750       0.00408827      -0.00122406      -0.00028067
Cr       3.12711143       6.12754345       3.12762165       0.24864179      -0.36286768       0.51937467       0.00685130       0.06742141      -0.01823668
V        0.16668013       6.13859892       3.17328429       0.02726826       0.40408804      -0.41071015       0.09486610       0.01897771      -0.10191213
V        3.10491657       9.19125462       3.15242124      -0.19989548       0.23965565       0.39695800      -0.01804230       0.02125282       0.02335611
V        0.14211395       9.20628738       3.18022323       0.18811493      -0.03344905      -0.22755072       0.02704732      -0.02640116       0.00247388
Ti       0.22146747       6.00616360       0.13903746       0.39416593       0.51259765       0.86201062      -0.36872703       0.76090598       0.46711051
Cr       0.12338313       6.19085312       6.17050171      -0.04190235      -0.08556814      -0.30348755       0.03143691      -0.01260426      -0.04719917
V        3.10669160       6.18304873       6.12225723       0.20860918      -0.05229005       0.17437783      -0.01057446       0.00876689      -0.01003412
Cr       3.14359903       9.13191891       6.08431721      -0.19956182       0.02006404       0.05763686      -0.02205164       0.02963348      -0.01407871
V        1.62343991       7.64893770       4.63621807      -0.03611526       0.43978534      -0.11759395      -0.00559341       0.03643325       0.00499188
V        1.65478647      10.64414310       4.65644979      -0.14714380       0.03495247       0.16214488       0.00850618      -0.06776065      -0.06112353
V        0.12671502       9.15988731       6.15544891       0.35920676       0.03519844      -0.36619116      -0.00641158      -0.02948141      -0.01119691
Cr       1.71669304       7.60071993      10.58144474       0.37468230      -0.84800609      -0.05239464      -0.03343765      -0.03003178      -0.01510102
V        1.71712959      10.60022449      10.64774418       0.19461945       0.13702701       0.51475732      -0.01674454       0.02806028       0.00268026
V        3.12952065       9.15922546       9.11694145      -0.60058442       0.52209752      -0.36571525       0.10063609       0.07999305      -0.01732766
Cr       1.66309619      10.61215401       7.63792467       0.34446019      -0.21103680      -0.27389820       0.02180412       0.03809791       0.00279124
Cr       0.12749729       9.16944695       9.16720295      -0.42468140      -0.45623039      -0.31589002      -0.03854239       0.01362717      -0.00621524
Cr       0.08026759       6.20070791       9.12806416       0.26157478       0.32109079      -0.72278924      -0.28812221      -0.22007039      -0.44633883
V        1.67930377       7.64629173       7.64303112       0.21425658      -0.29311720      -0.27242643      -0.01764787       0.01066330       0.01993509
V        3.13555431       6.13648844       9.09112358       0.13114898      -0.07698032       0.73799726       0.01924734       0.01080063      -0.00696372
Ti       1.84280777       7.83245230      13.98429775       0.07904385       0.27709667       0.22855053       0.02796698      -0.05503916       0.00518748
Ti       0.02898042       9.10809326      12.15012836       0.12510576       1.01786707      -0.07278165       0.35358128       1.10397542       0.10626044
Cr       1.60874557      10.69420815      13.73670483       0.43598145       0.45394227       0.10056438       0.04367241      -0.05377957       0.00392418
Cr       3.23123741       9.21853256      12.15542221       0.70566422       0.22470573      -0.21984451       0.00162555      -0.01699818       0.05069951
Cr       0.57543880       6.59932041      12.62315750       0.04506623       0.36969481       0.03009417      -0.02748841      -0.05533133       0.10940522
V        3.24360061       6.18051100      12.17362309       0.39725823      -0.16635280       0.15196626       0.06879923      -0.00109151       0.06686439
Ti       7.66213703       1.55634630       1.67691886       0.38612614       0.56528880       0.21656025      -0.04808801       0.77275658      -0.63128150
Ti       6.28606987       0.24618772      -0.03285793      -0.88431171      -0.58113194       0.15639659      -0.69262147      -1.09597802       0.54253596
V        7.70540094       4.61938429       1.66126966       0.02175996      -0.47104544       0.72155284      -0.01648642       0.01228105      -0.04178358
Ti       6.20669842       3.09735179       3.11888337      -0.21428843       0.57691073      -0.30100857      -0.01712406      -0.03841526       0.02003865
Ti       4.60339737       4.43357754       1.52857506      -0.17319122       0.54314502       0.39128033       0.73945534       1.05708516       0.40698180
Cr       4.70972776       1.56278574       1.59934962      -0.37853052       0.23090911      -0.15344603       0.01218279       0.05519304      -0.00936375
Ti       6.17341995       0.06846291       3.14759517       0.22981768      -0.16057531      -0.49639897       0.02618429      -0.07710992       0.03383135
V        6.22127771       3.12778282       0.10221040      -0.03868783       0.26985406      -0.74226529       0.04249440      -0.01008065      -0.00597616
V        7.60498142       1.65774167       4.66608858       0.22401344      -0.64964792       0.14370252       0.05351018       0.01728479      -0.05287394
V        6.15599537       3.07827902       6.07402992       0.18916830       0.20292950      -0.03475224       0.05436523       0.01454979      -0.04946811
Cr       7.63989162       4.67550087       4.62392569       0.17616632      -0.40628320       0.36241230      -0.01655212      -0.00531587      -0.01832286
Cr       4.68999243       4.64653206       4.70767355       0.23974770      -0.01977110      -0.36023129       0.01860532      -0.06624085      -0.07892685
V        4.65108538       1.62409294       4.64892530      -0.47069947      -0.08962739      -0.23536131       0.00848488       0.01437981      -0.00058970
V        6.16843367       0.07182784       6.06709671      -0.02249125      -0.28372874      -0.16885494      -0.01132446      -0.00048316       0.01811315
V        6.19181871       0.07029499       9.18079472      -0.20067602       0.26033203      -0.31201050      -0.01146433       0.03260471      -0.02498878
V        4.53838587       4.65601397      10.63673782      -0.70661699      -0.00015184      -0.85645687       0.06479011       0.00603670      -0.01861401
Ti       7.63078690       1.58327949       7.58074760       1.16094605      -0.03019936      -0.15976805      -0.00196754      -0.01001654       0.00310114
V        7.63426208       1.59415615      10.61845779      -0.06716669      -0.45099652      -0.02603820       0.00925334      -0.00373883      -0.02797571
V        6.00528288       2.78131151       8.94673252      -0.34720181       0.45736300       0.13315015      -0.23135714       0.91137731       0.17896484
Cr       7.12729073       4.21645164      10.14972305       0.43118762      -0.37569719       0.41132473      -0.05806596      -0.03866678      -0.07451003
V        4.59444475       1.59902585      10.63097763      -0.55886785       0.05101520       0.06849468       0.00470012       0.01113098       0.02379335
V        7.56900358       4.60661459       7.53661203       0.33912771      -0.10549721      -0.31808309       0.04983797      -0.13085182      -0.03415768
Cr       4.60328674       4.61644745       7.59263277       0.07568992      -0.63458670      -0.42083452      -0.06272141       0.01585561       0.05616274
V        8.39775181       5.30431557      11.46324444      -0.60199168      -0.78846703      -0.03709646       0.02977118      -0.06863277      -0.14151187
Cr       6.18309212       0.16295129      12.20254517      -0.11559591       0.58186782      -0.11723473       0.01189113      -0.04786355      -0.03049185
Ti       7.73811579       1.70480835      13.74080753      -0.08497016       0.48898807      -0.23145881       0.01745282       0.04546768       0.01815285
Cr       4.67780018       4.62771893      13.61897373       0.19673503       0.02069819       0.45055840       0.00057705      -0.01225772      -0.02000114
V        4.65933561       1.67137325      13.68264103       0.23184581      -0.12327891       0.14271754       0.03311314      -0.05539229      -0.04930642
V        7.71420431       4.58117008      13.77650261      -0.13233864       0.38334763       0.75061219      -0.04852621      -0.05149998       0.05014857
V        6.15724421       3.09903026      12.19932365      -0.29975177      -0.50467037       0.23487786       0.00488790      -0.01411838      -0.02915013
Cr       4.67014265       7.72002840       1.63485181       0.26681468       0.26167138      -1.09056485      -0.00306781       0.00239041      -0.02748772
Cr       6.19759178       6.09356642       0.11498605       0.17081276       0.53434300      -0.08044325       0.00241519      -0.01638694      -0.01012370
Cr       7.69317245       7.65852261       1.69793105      -0.00891712       0.49538828      -0.30624080       0.00941654       0.04358887      -0.06659549
V        6.17567396       9.25632954       0.08273113      -0.00240219      -0.42550615       0.76249500      -0.02128456       0.01858152      -0.07577030
V        7.64001226      10.65955830       1.59614515       0.01775890      -0.34186231      -0.50847438       0.04804062      -0.02298003      -0.02512789
Cr       6.13794565       9.24828053       3.16476583      -0.19499223       0.25574014       0.29541568      -0.00454994      -0.01734961       0.02198712
V        4.61170626      10.69698238       1.55926561      -0.42287666      -0.43901344      -0.28892879      -0.01568622      -0.03316594      -0.02053835
V        6.16363192       6.11347485       3.10597372      -0.51499569      -0.53190903       0.14570733      -0.03471633      -0.05081441      -0.00163716
V        7.62575293      10.63875294       4.65941048      -0.21430593       0.16507638      -0.26590667       0.02299949       0.00231185       0.00294566
V        4.62016010      10.68834877       4.64385509       0.43461892      -0.53964268      -0.12099408      -0.01882474       0.03185473      -0.00633256
Cr       6.17939043       9.19373322       6.08416986      -0.29900133      -0.06040721      -0.10025262       0.01292121      -0.02847722       0.00920258
V        4.67075443       7.63400078       4.61510944       0.51856850      -0.36677631       0.07427142      -0.08011935       0.00805116       0.01713584
Ti       7.69613266       7.64061642       4.61419106       0.04453164      -0.41001946       0.28375663      -0.01787785       0.02340917      -0.07924955
V        6.15588331       6.19894791       6.12545013      -0.73653922       0.59058581      -0.35664615       0.01031779      -0.01700225       0.07124841
V        7.63938522       7.72862577      10.72190571      -0.43892705       0.10152776      -0.19237785      -0.02823020       0.01273737      -0.07100628
V        6.23316193       9.21598148       9.13448143      -0.09491291      -0.17139175       0.43971294       0.00292034       0.04970592       0.01775510
V        7.67337751      10.75794601      10.68329620      -0.29148120      -0.42632953      -0.33857956      -0.50310910      -0.94730306      -0.26924205
V        7.61074543      10.66824722       7.63907766       0.79687644      -0.17898123       0.26919892       0.05533282       0.02567493       0.02770720
Cr       4.69485188       7.69242096      10.60146713      -0.26342258       0.05103057       0.37955954      -0.01905550       0.06637034       0.00176831
Cr       6.14842319       6.28549767       9.07551670       0.27124571       0.66345542       0.11605863      -0.01758183       0.07660214      -0.07934968
Ti       4.69506502      10.66053104      10.61335754      -0.42866492       0.27993713      -0.04132571       0.00774461       0.00741984      -0.02063037
Cr       4.66401434      10.70218754       7.66623735       0.06476353      -0.10223770       0.25966376       0.00463608      -0.02504985      -0.00234194
Cr       4.70970678       7.82838631       7.56904173      -0.12987459      -0.65617537      -0.10831778      -0.35678738      -0.98230028       0.36821246
V        7.65248203       7.69435740       7.62919617      -0.32780682       0.27829326       0.67451795      -0.01211584       0.02761269       0.00676098
V        6.11433172       6.16436481      12.16841412      -0.16846634      -0.21079111      -0.61238153      -0.05389263      -0.03175093      -0.00605102
V        4.67806911       7.69018078      13.67140198      -0.00919711      -0.55296009       0.20732502      -0.01317362      -0.00153602       0.00536691
V        7.67078352      10.66633987      13.73525143       0.22093420      -0.16466507       0.01312746       0.00349746      -0.08110908       0.03839726
V        6.17132759       9.23902893      12.22207832      -0.01895721      -0.43729018       0.52813850       0.00793199      -0.01146048       0.02885066
V        7.61646843       7.70775032      13.70709515      -0.04106484       0.52607491      -0.07710788      -0.00762913       0.00341056       0.05318327
V        4.67361879      10.71370316      13.72554016       0.12559811      -0.02796253      -0.23631542       0.01032965      -0.04722317      -0.01066580
