121
Lattice="9.04215026885 0.0 0.0 0.0 12.0474946843 0.0 0.0 0.0 15.109870339" Properties=species:S:1:pos:R:3:force:R:3 config_type=sia pbc="T T T"
Cr       1.61990414       1.74125183       1.54009390       0.12336864      -0.55775086       0.26652868
V        0.17520995       3.11677651       3.15477645      -0.30471008       0.36888619      -0.26157671
V        3.15390149       3.06696921       0.04316254      -0.14483782       0.42276353       0.19493684
V        1.64714104       4.68753192       1.70099390       0.01524858      -0.46384834      -0.57507944
V        3.17096806       3.09415906       3.16234069      -0.08509405       0.23608282      -0.31136076
V        0.09761348       3.20499773       0.12866731       0.28828765      -0.55882773      -0.26871112
V        3.06103259       0.05249309       3.07193676       0.37805461       0.63142304       0.02508166
V        0.11819404       0.20199620       3.19589054       0.15998867      -0.27372486      -0.29410120
V        3.17539936       0.17951046       0.10876603      -0.35674453      -0.13707954      -0.19979723
V        0.08271692       0.15694853       0.01865826       0.39279499      -0.14148923       0.51735942
V        3.06084443       0.06819048       6.06955771       0.13511636       0.32327942       0.30897587
V        0.16800229       3.13391835       6.15819289      -0.38956597      -0.09577405      -0.11714668
V        3.13254475       3.06418435       6.05578402      -0.22865876       0.48156623       0.44052387
V        1.60274348       1.64551341       4.65894022       0.11349473      -0.20055457      -0.22876322
Cr       1.66825317       4.66159335       4.65354929      -0.18164018      -0.13909514      -0.05803332
V        0.15216537      -0.04439360       6.18467713      -0.50040781       0.98748333      -0.12993435
V        1.65012346       1.62871967      10.62239162       0.09284277       0.09780789      -0.04371548
V        1.71854030       4.69474805      10.69530560       0.24891965      -0.13255286      -0.27944305
V        3.15390149       3.12181934       9.14141920      -0.24226432       0.20586085       0.21024379
V        0.16009277       0.01617571       9.08902462      -0.24410837       0.80602365       0.36256282
Cr       1.57260884       4.59503935       7.58189725       0.22888302       0.12901640       0.34742727
V        3.11043534       0.18254181       9.03927376       0.21686370      -0.44867982       0.95057070
V        0.09973504       3.13351380       9.14413818       0.16815693      -0.09169343       0.01600119
V        1.61060878       1.59121837       7.66238488      -0.07467103       0.04581711      -0.30137985
Cr       1.63961443       1.55843059      13.63350401       0.21551379       0.48192373       0.26571851
Cr       0.11860236       3.03705095      12.12564279       0.28768070       0.04952769       0.07265712
V        1.68293005       4.68201868      13.73624216      -0.07634035      -0.58774094      -0.14681849
V        0.21511037       0.14997231      12.12554870      -0.31214203      -0.21112271       0.16380953
Cr       3.11658834       3.21132948      12.16873260       0.15023462      -0.36455990       0.02632671
V        4.58069176       1.53490054       7.59321538      -0.13825882       0.06305176      -0.06047647
Cr       3.14910327       0.07797083      12.15019833       0.13594777       0.06708415       0.01240439
V        1.64292614       7.69122119       1.71221795      -0.31573477      -0.43787051      -0.11670711
V        0.12906904       9.15358408       0.15641508      -0.41727118       0.08700563       0.07074955
V        1.55869402      10.70800675       1.58550755       0.12451573      -0.14523481       0.18908651
V        3.15081558       9.23126805       0.24512271       0.30973414       0.10444106      -0.38234872
V        3.18223916       6.12157595       0.16938530       0.21114748      -0.14190603       0.18283750
V        3.10757524       6.19129114       3.10212785       0.24864179      -0.36286768       0.51937467
V        0.12394155       6.10397311       3.20192123       0.02726826       0.40408804      -0.41071015
V        3.16474921       9.16856202       3.09381095      -0.19989548       0.23965565       0.39695800
V        0.11259049       9.16557019       3.17909680       0.18811493      -0.03344905      -0.22755072
V        0.05968278       6.03720272       0.05898713       0.39416593       0.51259765       0.86201062
V        0.11958082       6.16475985       6.17386704      -0.04190235      -0.08556814      -0.30348755
V        3.08778027       6.17412106       6.10990031       0.20860918      -0.05229005       0.17437783
Cr       3.16322507       9.18095269       6.11527243      -0.19956182       0.02006404       0.05763686
V        1.64852405       7.60734658       4.68040046      -0.03611526       0.43978534      -0.11759395
V        1.63978378      10.62389694       4.60271649      -0.14714380       0.03495247       0.16214488
Cr       0.07916784       9.13054326       6.20000318       0.35920676       0.03519844      -0.36619116
V        1.62964168       7.78069370      10.57713791       0.37468230      -0.84800609      -0.05239464
V        1.67164014      10.65936607      10.60084671       0.19461945       0.13702701       0.51475732
V        3.27171167       9.11217834       9.19362562      -0.60058442       0.52209752      -0.36571525
Cr       1.63306629      10.64920515       7.68457896       0.34446019      -0.21103680      -0.27389820
Cr       0.17306864       9.22754238       9.20929036      -0.42468140      -0.45623039      -0.31589002
V        0.08997868       6.10320163       9.14143802       0.26157478       0.32109079      -0.72278924
V        1.60513317       7.70669777       7.69091071       0.21425658      -0.29311720      -0.27242643
Cr       3.12059626       6.18078211       9.01607300       0.13114898      -0.07698032       0.73799726
V        1.84957849       7.80368748      13.97361246       0.07904385       0.27709667       0.22855053
V        0.11838785       9.12013773      12.20758870       0.12510576       1.01786707      -0.07278165
V        1.54673613      10.61044313      13.67875771       0.43598145       0.45394227       0.10056438
Cr       3.08331134       9.15410152      12.16976751       0.70566422       0.22470573      -0.21984451
V        0.64571685       6.60821800      12.62117564       0.04506623       0.36969481       0.03009417
V        3.19491207       6.24273548      12.17541246       0.39725823      -0.16635280       0.15196626
V        7.65022942       1.56442365       1.62098608       0.38612614       0.56528880       0.21656025
V        6.29385994       0.20476128       0.06084188      -0.88431171      -0.58113194       0.15639659
V        7.65149012       4.67086990       1.52568986       0.02175996      -0.47104544       0.72155284
V        6.18817699       3.05878402       3.13882005      -0.21428843       0.57691073      -0.30100857
Cr       4.65712443       4.51196445       1.55211766      -0.17319122       0.54314502       0.39128033
V        4.71173936       1.56927831       1.64821358      -0.37853052       0.23090911      -0.15344603
Cr       6.15695099       0.14792037       3.22751168       0.22981768      -0.16057531      -0.49639897
V        6.15693218       3.03383332       0.17866937      -0.03868783       0.26985406      -0.74226529
V        7.63882661       1.74080964       4.66119821       0.22401344      -0.64964792       0.14370252
Cr       6.07238959       3.15991337       6.10934522       0.18916830       0.20292950      -0.03475224
V        7.64362482       4.70346010       4.56960884       0.17616632      -0.40628320       0.36241230
V        4.60725127       4.64322844       4.64744333       0.23974770      -0.01977110      -0.36023129
V        4.69235835       1.63045079       4.64062235      -0.47069947      -0.08962739      -0.23536131
Cr       6.12517932       0.16083414       6.14567050      -0.02249125      -0.28372874      -0.16885494
V        6.18592843       0.03461457       9.20806729      -0.20067602       0.26033203      -0.31201050
V        4.65127250       4.71104315      10.78327280      -0.70661699      -0.00015184      -0.85645687
V        7.53162894       1.54971855       7.61253053       1.16094605      -0.03019936      -0.15976805
V        7.70226648       1.60232952      10.63800933      -0.06716669      -0.45099652      -0.02603820
V        5.94630955       2.80499631       8.93181266      -0.34720181       0.45736300       0.13315015
Cr       7.08247879       4.27338989      10.10700735       0.43118762      -0.37569719       0.41132473
V        4.71988691       1.59541444      10.71402803      -0.55886785       0.05101520       0.06849468
V        7.60295292       4.63654858       7.59553922       0.33912771      -0.10549721      -0.31808309
V        4.57294876       4.72788393       7.66495334       0.07568992      -0.63458670      -0.42083452
Cr       8.44308198       5.41987998      11.39716151      -0.60199168      -0.78846703      -0.03709646
Cr       6.19265533       0.05066195      12.18698462      -0.11559591       0.58186782      -0.11723473
V        7.70024370       1.58384229      13.70641798      -0.08497016       0.48898807      -0.23145881
V        4.60173803       4.61089226      13.65053294       0.19673503       0.02069819       0.45055840
V        4.62863623       1.62849388      13.63152827       0.23184581      -0.12327891       0.14271754
V        7.67995951       4.55734987      13.68252102      -0.13233864       0.38334763       0.75061219
V        6.21338172       3.17500420      12.19451123      -0.29975177      -0.50467037       0.23487786
V        4.63667089       7.62975705       1.78184845       0.26681468       0.26167138      -1.09056485
V        6.10288175       6.01912004       0.09605359       0.17081276       0.53434300      -0.08044325
V        7.69509739       7.59256621       1.64240868      -0.00891712       0.49538828      -0.30624080
V        6.16002750       9.26316203       0.01739850      -0.00240219      -0.42550615       0.76249500
Cr       7.67752277      10.73275047       1.70501123       0.01775890      -0.34186231      -0.50847438
V        6.18975759       9.16037683       3.10615459      -0.19499223       0.25574014       0.29541568
V        4.75941100      10.78534262       1.64010366      -0.42287666      -0.43901344      -0.28892879
V        6.24537920       6.22702369       3.06302714      -0.51499569      -0.53190903       0.14570733
V        7.66801102      10.62267387       4.67957253      -0.21430593       0.16507638      -0.26590667
Cr       4.58055063      10.74629835       4.64636139       0.43461892      -0.53964268      -0.12099408
Cr       6.18871327       9.17032136       6.12603546      -0.29900133      -0.06040721      -0.10025262
V        4.58573458       7.72118648       4.60990440       0.51856850      -0.36677631       0.07427142
V        7.68631008       7.69168219       4.58764446       0.04453164      -0.41001946       0.28375663
Cr       6.24258495       6.06040348       6.15000770      -0.73653922       0.59058581      -0.35664615
V        7.73487549       7.74049223      10.71224046      -0.43892705       0.10152776      -0.19237785
V        6.21394621       9.19408662       9.08802735      -0.09491291      -0.17139175       0.43971294
Cr       7.75497153      10.70490203      10.70913574      -0.29148120      -0.42632953      -0.33857956
V        7.55334319      10.66604593       7.61155208       0.79687644      -0.17898123       0.26919892
V        4.72737588       7.70049773      10.59021538      -0.26342258       0.05103057       0.37955954
V        6.08404642       6.21463302       9.06993527       0.27124571       0.66345542       0.11605863
Cr       4.71723378      10.62559043      10.67310212      -0.42866492       0.27993713      -0.04132571
V        4.64263572      10.66087139       7.58038252       0.06476353      -0.10223770       0.25966376
Cr       4.68324175       7.74150832       7.59136195      -0.12987459      -0.65617537      -0.10831778
Cr       7.71469478       7.60213441       7.56995817      -0.32780682       0.27829326       0.67451795
V        6.08944676       6.20828244      12.25745245      -0.16846634      -0.21079111      -0.61238153
V        4.66849902       7.77508638      13.71300377      -0.00919711      -0.55296009       0.20732502
V        7.66864137      10.69662276      13.67951037       0.22093420      -0.16466507       0.01312746
Cr       6.19304107       9.23279218      12.12884159      -0.01895721      -0.43729018       0.52813850
Cr       7.57329811       7.57196213      13.73595991      -0.04106484       0.52607491      -0.07710788
V        4.64541115      10.69445886      13.71996587       0.12559811      -0.02796253      -0.23631542
121
Lattice="9.04215026885 0.0 0.0 0.0 12.0474946843 0.0 0.0 0.0 15.109870339" Properties=species:S:1:pos:R:3:force:R:3:forces:R:3 config_type=sia_aa parent_id=99999999 generation=9 step=0 variance=0.07423309236764908 loss=0.07423309236764908 energy=-1090.1348446855593 pbc="T T T"
Cr       1.61990416       1.74125183       1.54009390       0.12336864      -0.55775086       0.26652868       0.08464698      -0.50801468       0.03789179
V        0.17520995       3.11677647       3.15477633      -0.30471008       0.36888619      -0.26157671       0.15245411       0.38685745      -0.32067782
V        3.15390158       3.06696916       0.04316254      -0.14483782       0.42276353       0.19493684      -0.44977212       0.18560255       0.48762125
V        1.64714110       4.68753195       1.70099390       0.01524858      -0.46384834      -0.57507944       0.03414356      -0.50001097      -0.44492829
V        3.17096806       3.09415913       3.16234064      -0.08509405       0.23608282      -0.31136076      -0.21801496       0.39983982      -0.65956229
V        0.09761348       3.20499778       0.12866731       0.28828765      -0.55882773      -0.26871112       0.74077892      -0.96733564      -0.11670361
V        3.06103253       0.05249309       3.07193685       0.37805461       0.63142304       0.02508166       0.50420928       0.64806294       0.17319024
V        0.11819404       0.20199621       3.19589043       0.15998867      -0.27372486      -0.29410120      -0.01528321      -0.46030188      -0.71175355
V        3.17539930       0.17951046       0.10876603      -0.35674453      -0.13707954      -0.19979723      -0.64682686       0.05746145      -0.26607543
V        0.08271692       0.15694854       0.01865826       0.39279499      -0.14148923       0.51735942       0.72209376       0.16207683       0.65120387
V        3.06084442       0.06819048       6.06955767       0.13511636       0.32327942       0.30897587       0.39094663       0.04171335       0.34955227
V        0.16800229       3.13391829       6.15819311      -0.38956597      -0.09577405      -0.11714668      -0.08071635       0.48603106      -0.02557500
V        3.13254476       3.06418443       6.05578423      -0.22865876       0.48156623       0.44052387      -0.50860727       0.95021462       0.52118850
V        1.60274351       1.64551342       4.65894032       0.11349473      -0.20055457      -0.22876322       0.19252060      -0.21131401      -0.31424665
Cr       1.66825318       4.66159344       4.65354919      -0.18164018      -0.13909514      -0.05803332      -0.16834734      -0.17588465      -0.02593016
V        0.15216537      -0.04439360       6.18467712      -0.50040781       0.98748333      -0.12993435      -0.38399825       0.79883379      -0.10872179
V        1.65012348       1.62871969      10.62239170       0.09284277       0.09780789      -0.04371548       0.21250051       0.32734185       0.46718389
V        1.71854031       4.69474792      10.69530582       0.24891965      -0.13255286      -0.27944305       0.22157040      -0.30443263      -0.07522911
V        3.15390158       3.12181926       9.14141941      -0.24226432       0.20586085       0.21024379      -0.50496483       0.37487650       0.01004446
V        0.16009277       0.01617571       9.08902454      -0.24410837       0.80602365       0.36256282      -0.21311405       0.57858551       0.43296608
Cr       1.57260883       4.59503937       7.58189726       0.22888302       0.12901640       0.34742727       0.19422436       0.12226715       0.25088078
V        3.11043525       0.18254182       9.03927422       0.21686370      -0.44867982       0.95057070       0.18289742      -0.85704941       0.86406803
V        0.09973504       3.13351369       9.14413834       0.16815693      -0.09169343       0.01600119       0.21985500       0.29145455       0.06843294
V        1.61060882       1.59121835       7.66238499      -0.07467103       0.04581711      -0.30137985      -0.13106503       0.14128026      -0.24287198
Cr       1.63961446       1.55843055      13.63350391       0.21551379       0.48192373       0.26571851       0.17110240       0.55377644      -0.18699649
Cr       0.11860236       3.03705096      12.12564278       0.28768070       0.04952769       0.07265712       0.28445345      -0.06163932       0.15809126
V        1.68292999       4.68201876      13.73624229      -0.07634035      -0.58774094      -0.14681849      -0.19473419      -0.88394237      -0.55270910
V        0.21511038       0.14997230      12.12554836      -0.31214203      -0.21112271       0.16380953      -0.27152610      -0.23873755       0.32653710
Cr       3.11658835       3.21132946      12.16873264       0.15023462      -0.36455990       0.02632671       0.01526812      -0.58323050       0.13618335
V        4.58069181       1.53490055       7.59321547      -0.13825882       0.06305176      -0.06047647       0.34969735       0.17218086      -0.37289810
Cr       3.14910316       0.07797083      12.15019798       0.13594777       0.06708415       0.01240439       0.23662922       0.36304423       0.06040579
V        1.64292610       7.69122124       1.71221793      -0.31573477      -0.43787051      -0.11670711      -0.24641204      -0.37520760      -0.09034805
V        0.12906905       9.15358448       0.15641508      -0.41727118       0.08700563       0.07074955      -0.85665649       0.13193677       0.11100829
V        1.55869401      10.70800686       1.58550751       0.12451573      -0.14523481       0.18908651       0.17772935       0.04915452       0.22728944
V        3.15081549       9.23126793       0.24512272       0.30973414       0.10444106      -0.38234872       0.22684035      -0.02964112      -0.58787787
V        3.18223906       6.12157583       0.16938530       0.21114748      -0.14190603       0.18283750       0.36518884      -0.27897081       0.28393668
V        3.10757518       6.19129133       3.10212779       0.24864179      -0.36286768       0.51937467       0.22014773      -0.77874231       0.48372746
V        0.12394155       6.10397291       3.20192122       0.02726826       0.40408804      -0.41071015       0.30715984       0.14008458      -0.21310139
V        3.16474915       9.16856194       3.09381104      -0.19989548       0.23965565       0.39695800      -0.11664136       0.56445861       0.64553583
V        0.11259049       9.16557026       3.17909670       0.18811493      -0.03344905      -0.22755072      -0.03628431       0.28465065      -0.26031667
V        0.05968278       6.03720284       0.05898713       0.39416593       0.51259765       0.86201062       0.24832693       0.79675710       0.58799493
V        0.11958082       6.16475964       6.17386723      -0.04190235      -0.08556814      -0.30348755       0.27925429      -0.36140770      -0.08481505
V        3.08778024       6.17412090       6.10990047       0.20860918      -0.05229005       0.17437783      -0.05962612      -0.30753693       0.29665703
Cr       3.16322517       9.18095303       6.11527252      -0.19956182       0.02006404       0.05763686      -0.02897254       0.06504913       0.05385796
V        1.64852405       7.60734653       4.68040037      -0.03611526       0.43978534      -0.11759395      -0.12803108       0.82692862       0.10493573
V        1.63978374      10.62389660       4.60271645      -0.14714380       0.03495247       0.16214488      -0.16297309      -0.37841019       0.41737509
Cr       0.07916784       9.13054371       6.20000315       0.35920676       0.03519844      -0.36619116       0.18748268      -0.06250036      -0.16484496
V        1.62964165       7.78069353      10.57713795       0.37468230      -0.84800609      -0.05239464       0.38125610      -0.76064956      -0.17597829
V        1.67164016      10.65936565      10.60084629       0.19461945       0.13702701       0.51475732       0.48858187       0.05726510       0.64889640
V        3.27171159       9.11217880       9.19362545      -0.60058442       0.52209752      -0.36571525      -0.58176458       0.71813583      -0.65079916
Cr       1.63306630      10.64920521       7.68457890       0.34446019      -0.21103680      -0.27389820       0.09509693      -0.25785372      -0.42036217
Cr       0.17306864       9.22754192       9.20929050      -0.42468140      -0.45623039      -0.31589002      -0.11364342      -0.38485187      -0.25992399
V        0.08997868       6.10320187       9.14143848       0.26157478       0.32109079      -0.72278924       0.28075427       0.34069979      -0.73516554
V        1.60513318       7.70669794       7.69091082       0.21425658      -0.29311720      -0.27242643       0.17442107      -0.11288165      -0.34598488
Cr       3.12059617       6.18078232       9.01607323       0.13114898      -0.07698032       0.73799726      -0.02260813      -0.08917806       0.62389982
V        1.84957850       7.80368757      13.97361279       0.07904385       0.27709667       0.22855053      -0.12222970       0.14182276      -0.22066268
V        0.11838785       9.12013817      12.20758915       0.12510576       1.01786707      -0.07278165      -0.21727376       0.91534936       0.14324968
V        1.54673612      10.61044312      13.67875767       0.43598145       0.45394227       0.10056438       0.90212506       0.46872920      -0.14114687
Cr       3.08331132       9.15410137      12.16976738       0.70566422       0.22470573      -0.21984451       0.57309890       0.31810880       0.00047100
V        0.64571685       6.60821819      12.62117577       0.04506623       0.36969481       0.03009417      -0.60468900       0.10155804       0.00935147
V        3.19491196       6.24273539      12.17541218       0.39725823      -0.16635280       0.15196626       0.18926418      -0.05609406       0.05752380
V        7.65022945       1.56442368       1.62098610       0.38612614       0.56528880       0.21656025       0.30451313       0.38444003       0.25155938
V        6.29385996       0.20476128       0.06084188      -0.88431171      -0.58113194       0.15639659      -0.79650354      -0.87601972       0.32886943
V        7.65149021       4.67086983       1.52568984       0.02175996      -0.47104544       0.72155284       0.04140408      -0.43191621       0.68819040
V        6.18817711       3.05878401       3.13881993      -0.21428843       0.57691073      -0.30100857      -0.45597860       0.89512920      -0.34618410
Cr       4.65712452       4.51196432       1.55211771      -0.17319122       0.54314502       0.39128033      -0.01917031       0.53242433       0.47747892
V        4.71173954       1.56927836       1.64821362      -0.37853052       0.23090911      -0.15344603      -0.26447415       0.06005805      -0.02843834
Cr       6.15695095       0.14792037       3.22751164       0.22981768      -0.16057531      -0.49639897       0.09038194      -0.47282073      -0.35642815
V        6.15693235       3.03383327       0.17866936      -0.03868783       0.26985406      -0.74226529      -0.20790261       0.60766369      -0.51758111
V        7.63882685       1.74080968       4.66119814       0.22401344      -0.64964792       0.14370252      -0.31970334      -0.88371122       0.26013482
Cr       6.07238960       3.15991330       6.10934544       0.18916830       0.20292950      -0.03475224       0.23467919      -0.09182616      -0.18286824
V        7.64362478       4.70346022       4.56960869       0.17616632      -0.40628320       0.36241230      -0.28827944      -0.35687217       0.76908624
V        4.60725117       4.64322853       4.64744329       0.23974770      -0.01977110      -0.36023129       0.80007952      -0.03281166      -0.05124006
V        4.69235849       1.63045084       4.64062214      -0.47069947      -0.08962739      -0.23536131       0.04619063      -0.17798010       0.00170975
Cr       6.12517929       0.16083413       6.14567041      -0.02249125      -0.28372874      -0.16885494      -0.10312407      -0.22729793      -0.29888064
V        6.18592834       0.03461457       9.20806694      -0.20067602       0.26033203      -0.31201050      -0.25878602      -0.09275869       0.09083556
V        4.65127230       4.71104336      10.78327274      -0.70661699      -0.00015184      -0.85645687      -0.68373650      -0.21625364      -0.84886521
V        7.53162909       1.54971850       7.61253071       1.16094605      -0.03019936      -0.15976805       0.72896743      -0.02928836      -0.55378640
V        7.70226669       1.60232949      10.63800907      -0.06716669      -0.45099652      -0.02603820      -0.04496953      -0.24701588       0.33381444
V        5.94630957       2.80499625       8.93181229      -0.34720181       0.45736300       0.13315015       0.04651898       1.06549478       0.42345566
Cr       7.08247900       4.27338982      10.10700703       0.43118762      -0.37569719       0.41132473       0.49173325      -0.40596437       0.63637149
V        4.71988678       1.59541440      10.71402836      -0.55886785       0.05101520       0.06849468      -0.76297373      -0.28863078       0.44720098
V        7.60295296       4.63654852       7.59553909       0.33912771      -0.10549721      -0.31808309      -0.17633717      -0.22002837      -0.64095813
V        4.57294893       4.72788382       7.66495323       0.07568992      -0.63458670      -0.42083452       0.21492600      -0.44891691      -0.61325574
Cr       8.44308186       5.41987991      11.39716148      -0.60199168      -0.78846703      -0.03709646      -0.34171352      -0.86212289      -0.16312332
Cr       6.19265556       0.05066195      12.18698502      -0.11559591       0.58186782      -0.11723473      -0.15096733       0.22452325      -0.32094884
V        7.70024347       1.58384228      13.70641804      -0.08497016       0.48898807      -0.23145881      -0.01572165       0.51424986      -0.51517773
V        4.60173798       4.61089230      13.65053272       0.19673503       0.02069819       0.45055840       0.09963195      -0.13473430       0.32342428
V        4.62863636       1.62849391      13.63152790       0.23184581      -0.12327891       0.14271754       0.07386148      -0.17275666      -0.18795979
V        7.67995930       4.55734968      13.68252087      -0.13233864       0.38334763       0.75061219       0.09392341       0.22966799       0.31105885
V        6.21338177       3.17500424      12.19451141      -0.29975177      -0.50467037       0.23487786      -0.11568728      -0.44583303      -0.02894742
V        4.63667107       7.62975693       1.78184843       0.26681468       0.26167138      -1.09056485       0.37096462       0.12271290      -1.09636307
V        6.10288191       6.01912022       0.09605359       0.17081276       0.53434300      -0.08044325       0.11687278       0.54153383       0.06838666
V        7.69509745       7.59256601       1.64240873      -0.00891712       0.49538828      -0.30624080      -0.13942018       0.52140850      -0.26105094
V        6.16002750       9.26316166       0.01739850      -0.00240219      -0.42550615       0.76249500       0.38557029      -0.56550288       0.78772879
Cr       7.67752266      10.73275089       1.70501125       0.01775890      -0.34186231      -0.50847438      -0.05778002      -0.32646564      -0.27838552
V        6.18975782       9.16037655       3.10615468      -0.19499223       0.25574014       0.29541568      -0.00088197       0.63612598       0.14782181
V        4.75941086      10.78534222       1.64010370      -0.42287666      -0.43901344      -0.28892879      -0.35962015      -0.44730005      -0.18556541
V        6.24537897       6.22702360       3.06302714      -0.51499569      -0.53190903       0.14570733      -0.76415777      -0.65633607       0.14081070
V        7.66801119      10.62267399       4.67957258      -0.21430593       0.16507638      -0.26590667      -0.46448016       0.21497670       0.11026494
Cr       4.58055067      10.74629879       4.64636135       0.43461892      -0.53964268      -0.12099408       0.60456961      -0.59254563      -0.06323759
Cr       6.18871307       9.17032146       6.12603569      -0.29900133      -0.06040721      -0.10025262      -0.43316197      -0.07383174       0.08894148
V        4.58573437       7.72118664       4.60990429       0.51856850      -0.36677631       0.07427142       0.59207976      -0.14008304       0.59479779
V        7.68631029       7.69168234       4.58764458       0.04453164      -0.41001946       0.28375663      -0.11833592      -0.21326730       0.59047174
Cr       6.24258518       6.06040335       6.15000772      -0.73653922       0.59058581      -0.35664615      -0.65340155       0.69865739      -0.19883250
V        7.73487568       7.74049234      10.71224022      -0.43892705       0.10152776      -0.19237785      -0.39175102       0.25076419      -0.25370824
V        6.21394634       9.19408703       9.08802700      -0.09491291      -0.17139175       0.43971294      -0.18421565      -0.32235289       0.28498563
Cr       7.75497150      10.70490170      10.70913601      -0.29148120      -0.42632953      -0.33857956      -0.57191372      -0.36679864      -0.17222837
V        7.55334330      10.66604614       7.61155224       0.79687644      -0.17898123       0.26919892       0.65606689      -0.59103298      -0.18023035
V        4.72737598       7.70049763      10.59021568      -0.26342258       0.05103057       0.37955954      -0.30763692       0.08532247       0.62241423
V        6.08404636       6.21463299       9.06993484       0.27124571       0.66345542       0.11605863       0.46404743       0.69590843      -0.04400684
Cr       4.71723366      10.62559032      10.67310238      -0.42866492       0.27993713      -0.04132571       0.00881557       0.35450256       0.45224008
V        4.64263582      10.66087151       7.58038235       0.06476353      -0.10223770       0.25966376       0.12439011      -0.16190183      -0.12666608
Cr       4.68324184       7.74150848       7.59136200      -0.12987459      -0.65617537      -0.10831778       0.12646841      -0.41282511      -0.26644117
Cr       7.71469498       7.60213423       7.56995821      -0.32780682       0.27829326       0.67451795      -0.39472491       0.48207983       0.09555277
V        6.08944654       6.20828247      12.25745201      -0.16846634      -0.21079111      -0.61238153       0.32387301      -0.10549000      -0.27228272
V        4.66849899       7.77508640      13.71300411      -0.00919711      -0.55296009       0.20732502       0.10467549      -0.29743883      -0.24307129
V        7.66864157      10.69662285      13.67951012       0.22093420      -0.16466507       0.01312746      -0.22251078      -0.21914420      -0.32038331
Cr       6.19304085       9.23279190      12.12884140      -0.01895721      -0.43729018       0.52813850      -0.12149058      -0.12443647       0.14346397
Cr       7.57329798       7.57196236      13.73596001      -0.04106484       0.52607491      -0.07710788       0.09721260       0.47953683      -0.14001229
V        4.64541101      10.69445896      13.71996593       0.12559811      -0.02796253      -0.23631542       0.02715003       0.15876237      -0.62890750
121
Lattice="9.04215026885 0.0 0.0 0.0 12.0474946843 0.0 0.0 0.0 15.109870339" Properties=species:S:1:pos:R:3:force:R:3:forces:R:3 config_type=sia_aa parent_id=99999999 generation=9 step=11 variance=0.47151175141334534 loss=0.47151175141334534 energy=-1090.3926320392452 pbc="T T T"
Cr       1.58745503       1.64753175       1.55756986       0.12336864      -0.55775086       0.26652868       0.39057621       0.09429305      -0.09485956
V        0.19033304       3.17921424       3.15475464      -0.30471008       0.36888619      -0.26157671       0.10691337      -0.00863296      -0.26154655
V        3.12112570       3.08101344       0.04542925      -0.14483782       0.42276353       0.19493684      -0.26206633       0.00441619       0.50421715
V        1.61700201       4.66507578       1.69133782       0.01524858      -0.46384834      -0.57507944       0.31463185      -0.37122351      -0.42159224
V        3.18910742       3.12392926       3.17492342      -0.08509405       0.23608282      -0.31136076      -0.29002798       0.24841282      -0.74273676
V        0.08504246       3.16441679       0.10076892       0.28828765      -0.55882773      -0.26871112       0.88765496      -0.79244602      -0.09545618
V        3.07250881       0.07283324       3.03188610       0.37805461       0.63142304       0.02508166       0.48973608       0.53211856       0.48011285
V        0.15606987       0.21008140       3.21952915       0.15998867      -0.27372486      -0.29410120      -0.31766331      -0.45491537      -0.83615541
V        3.16852117       0.17829499       0.12066497      -0.35674453      -0.13707954      -0.19979723      -0.55369061       0.04550364      -0.40786478
V        0.12788732       0.22239847       0.04528963       0.39279499      -0.14148923       0.51735942       0.35037810      -0.32814181       0.53584719
V        3.02578068       0.07126462       6.10714149       0.13511636       0.32327942       0.30897587       0.66611278       0.11361697       0.17280631
V        0.15579611       3.20645046       6.15792131      -0.38956597      -0.09577405      -0.11714668       0.08999775       0.04994061      -0.14351457
V        3.12080431       3.10292196       6.08576727      -0.22865876       0.48156623       0.44052387      -0.43793535       0.73530042       0.33276600
V        1.62575936       1.63870239       4.63710165       0.11349473      -0.20055457      -0.22876322       0.08224546       0.00372406      -0.08309524
Cr       1.65708029       4.63948059       4.63331985      -0.18164018      -0.13909514      -0.05803332      -0.00479854       0.02616189       0.04998383
V        0.15769227      -0.07199831       6.19568634      -0.50040781       0.98748333      -0.12993435      -0.38346118       1.03796220      -0.22676218
V        1.63193607       1.66907632      10.66444492       0.09284277       0.09780789      -0.04371548       0.22298750       0.07665996       0.25126344
V        1.72543538       4.67050552      10.71624184       0.24891965      -0.13255286      -0.27944305      -0.02059490      -0.01270066      -0.03451118
V        3.09670353       3.17367339       9.12454510      -0.24226432       0.20586085       0.21024379      -0.10286888       0.03550002       0.09646586
V        0.17250107      -0.01840482       9.07877350      -0.24410837       0.80602365       0.36256282      -0.22661035       0.70293653       0.66251934
Cr       1.59619784       4.62322283       7.62789631       0.22888302       0.12901640       0.34742727      -0.00840284       0.03355201       0.02255883
V        3.10389090       0.17963070       9.06734085       0.21686370      -0.44867982       0.95057070       0.26031345      -0.65210676       0.64483154
V        0.13120839       3.20915937       9.13859653       0.16815693      -0.09169343       0.01600119      -0.05417843      -0.06633590       0.02957248
V        1.58966804       1.61999178       7.64587450      -0.07467103       0.04581711      -0.30137985      -0.02626759       0.00017891      -0.02305977
Cr       1.64618957       1.58940697      13.60582829       0.21551379       0.48192373       0.26571851       0.04129792       0.41384733      -0.01393069
Cr       0.15845296       3.05320477      12.17293358       0.28768070       0.04952769       0.07265712       0.02899015      -0.08183683      -0.03032038
V        1.67545092       4.67509031      13.70734978      -0.07634035      -0.58774094      -0.14681849      -0.20924971      -0.95232791      -0.41415507
V        0.18323775       0.10989359      12.17919350      -0.31214203      -0.21112271       0.16380953      -0.04509399       0.03425200       0.02348872
Cr       3.08801889       3.23163700      12.12188339       0.15023462      -0.36455990       0.02632671       0.18360007      -0.66267854       0.51755226
V        4.61166573       1.59054780       7.59464407      -0.13825882       0.06305176      -0.06047647       0.07729750      -0.21805814      -0.38095030
Cr       3.17781758       0.16152965      12.15879440       0.13594777       0.06708415       0.01240439      -0.00000683      -0.04692056       0.03585173
V        1.62633443       7.71346569       1.70194888      -0.31573477      -0.43787051      -0.11670711      -0.11862230      -0.48519731       0.01146688
V        0.08660716       9.13924408       0.18699078      -0.41727118       0.08700563       0.07074955      -0.51064372       0.29804462       0.00158430
V        1.59425306      10.72693729       1.62593544       0.12451573      -0.14523481       0.18908651       0.00726420      -0.10824881       0.00753628
V        3.16808677       9.22970581       0.27723137       0.30973414       0.10444106      -0.38234872       0.10028657      -0.09858888      -0.99227798
V        3.13679481       6.11350584       0.17305030       0.21114748      -0.14190603       0.18283750       0.55142874      -0.30517554       0.26639995
V        3.12436271       6.23950529       3.15143037       0.24864179      -0.36286768       0.51937467      -0.11727248      -1.19876289       0.13112213
V        0.15498157       6.12948608       3.17131495       0.02726826       0.40408804      -0.41071015       0.08792409       0.01633659      -0.00976702
V        3.21010399       9.16064453       3.08492661      -0.19989548       0.23965565       0.39695800      -0.52601713       0.67973948       0.72101611
V        0.11341485       9.16246128       3.17826223       0.18811493      -0.03344905      -0.22755072      -0.19478939       0.31430691      -0.18836944
V        0.06509992       5.99851131       0.02002614       0.39416593       0.51259765       0.86201062       0.26164865       1.00979578       0.94756210
V        0.16527167       6.12699604       6.16599417      -0.04190235      -0.08556814      -0.30348755      -0.08943747      -0.03406338      -0.02455951
V        3.06800127       6.11215448       6.13505602       0.20860918      -0.05229005       0.17437783       0.07409047       0.09476807       0.09357013
Cr       3.13823175       9.19268417       6.11962843      -0.19956182       0.02006404       0.05763686       0.01980559      -0.03460827      -0.01725913
V        1.63431585       7.62904072       4.69352388      -0.03611526       0.43978534      -0.11759395       0.07227378       0.72618926       0.03547419
V        1.63490558      10.63135529       4.61321926      -0.14714380       0.03495247       0.16214488      -0.11444195      -0.42980033       0.34996051
Cr       0.10050061       9.12347317       6.18032837       0.35920676       0.03519844      -0.36619116      -0.03793547      -0.01802045       0.01646739
V        1.61106312       7.69876051      10.56464672       0.37468230      -0.84800609      -0.05239464       0.37201560      -0.25650510      -0.32395777
V        1.69819856      10.65912724      10.62414837       0.19461945       0.13702701       0.51475732       0.24168441      -0.10063714       0.63376647
V        3.30153203       9.19652176       9.20119286      -0.60058442       0.52209752      -0.36571525      -0.89567125       0.00677226      -0.67009801
Cr       1.60703695      10.64118767       7.66519213       0.34446019      -0.21103680      -0.27389820       0.23203312      -0.30410677      -0.22605686
Cr       0.15749520       9.13973808       9.13995266      -0.42468140      -0.45623039      -0.31589002       0.04150044       0.03298255       0.05472285
V        0.06045926       6.04733467       9.12040615       0.26157478       0.32109079      -0.72278924       0.29502064       0.65883434      -0.70535773
V        1.63457167       7.68484402       7.64072227       0.21425658      -0.29311720      -0.27242643       0.01252605      -0.01730066       0.02925777
Cr       3.06593227       6.17778730       9.04308510       0.13114898      -0.07698032       0.73799726       0.29496557      -0.01709150       0.50605810
V        1.83692062       7.82926226      13.96109772       0.07904385       0.27709667       0.22855053       0.01565831      -0.02265207      -0.07907984
V        0.06669827       9.05018806      12.27643394       0.12510576       1.01786707      -0.07278165       0.10843430       1.39516246      -0.41514206
V        1.56708550      10.58884811      13.68421650       0.43598145       0.45394227       0.10056438       0.77579975       0.59394431      -0.00805926
Cr       3.09785247       9.12376118      12.18984413       0.70566422       0.22470573      -0.21984451       0.48642087       0.46364900      -0.15763092
V        0.59428185       6.62218380      12.62877941       0.04506623       0.36969481       0.03009417       0.09065124       0.00500186       0.11229395
V        3.20477962       6.24309540      12.18442631       0.39725823      -0.16635280       0.15196626       0.05300532       0.00415873       0.03176539
V        7.69374943       1.60426903       1.64520395       0.38612614       0.56528880       0.21656025      -0.02799431       0.03338562       0.09804553
V        6.26583004       0.17425358       0.09500714      -0.88431171      -0.58113194       0.15639659      -0.43655834      -0.60403532       0.19923568
V        7.67124844       4.62332058       1.49584961       0.02175996      -0.47104544       0.72155284      -0.05306582      -0.04670754       0.82306999
V        6.20920801       3.07675695       3.11742806      -0.21428843       0.57691073      -0.30100857      -0.56413358       0.72690576      -0.16629109
Cr       4.69219685       4.51375389       1.58857882      -0.17319122       0.54314502       0.39128033      -0.18984441       0.47036135       0.24234232
V        4.68931484       1.57229865       1.64834571      -0.37853052       0.23090911      -0.15344603       0.00903756       0.08749354      -0.00906613
Cr       6.17304039       0.09094120       3.25797200       0.22981768      -0.16057531      -0.49639897      -0.15791447      -0.01257815      -0.71327364
V        6.18316841       3.05006194       0.15586954      -0.03868783       0.26985406      -0.74226529      -0.47634301       0.36054611      -0.30901563
V        7.65615034       1.76025665       4.71002817       0.22401344      -0.64964792       0.14370252      -0.37088773      -0.84661639      -0.13741551
Cr       6.10656261       3.13237834       6.09118414       0.18916830       0.20292950      -0.03475224       0.01495007       0.03220863       0.00303347
V        7.62960815       4.75513172       4.56775904       0.17616632      -0.40628320       0.36241230      -0.05808596      -0.67602825       0.68262833
V        4.60102177       4.69856596       4.64591455       0.23974770      -0.01977110      -0.36023129       0.94622731      -0.35959297      -0.02180125
V        4.69731951       1.63324142       4.65423203      -0.47069947      -0.08962739      -0.23536131       0.12543662      -0.07667895      -0.09750341
Cr       6.10171413       0.11802876       6.11921692      -0.02249125      -0.28372874      -0.16885494       0.05483084       0.12607291       0.00324444
V        6.16347694       0.02831589       9.21335983      -0.20067602       0.26033203      -0.31201050      -0.02014278      -0.02305869       0.09275109
V        4.63506746       4.75829029      10.78393078      -0.70661699      -0.00015184      -0.85645687      -0.58022380      -0.46101457      -0.89154506
V        7.58845520       1.54678047       7.56144190       1.16094605      -0.03019936      -0.15976805       0.20776358       0.07279202      -0.02161146
V        7.65688324       1.67655706      10.65412140      -0.06716669      -0.45099652      -0.02603820       0.45135519      -0.80108571       0.30621180
V        5.93999147       2.82210112       8.98344612      -0.34720181       0.45736300       0.13315015       0.34311634       1.35776043       0.26512060
Cr       7.14727449       4.28607368      10.19714546       0.43118762      -0.37569719       0.41132473      -0.06652889      -0.53082752      -0.01535724
V        4.73649311       1.58430612      10.74647713      -0.55886785       0.05101520       0.06849468      -1.06188440      -0.22331768       0.11964530
V        7.54685259       4.61516905       7.52136564       0.33912771      -0.10549721      -0.31808309       0.07771304       0.01387429       0.04033750
V        4.54702139       4.70781708       7.67002726       0.07568992      -0.63458670      -0.42083452       0.45860323      -0.23385188      -0.43474564
Cr       8.42718983       5.44652843      11.42246342      -0.60199168      -0.78846703      -0.03709646      -0.06294934      -0.84286326      -0.35890672
Cr       6.17460871       0.08215828      12.14547634      -0.11559591       0.58186782      -0.11723473       0.01535532       0.00941928      -0.01276708
V        7.66643381       1.61334133      13.68480873      -0.08497016       0.48898807      -0.23145881       0.18042681       0.25299290      -0.32255772
V        4.60876083       4.60705185      13.68215752       0.19673503       0.02069819       0.45055840       0.04282109      -0.02224915       0.08170629
V        4.63863087       1.61225164      13.60675240       0.23184581      -0.12327891       0.14271754      -0.05154737      -0.03721068       0.05940855
V        7.66920185       4.59156704      13.71113968      -0.13233864       0.38334763       0.75061219       0.07017751      -0.17889497      -0.14412098
V        6.19388962       3.15415359      12.19726372      -0.29975177      -0.50467037       0.23487786      -0.02344482      -0.04597767       0.04882646
V        4.58743906       7.57928181       1.79285324       0.26681468       0.26167138      -1.09056485       0.81831110       0.41837376      -1.21681619
V        6.11931753       6.04263544       0.05973637       0.17081276       0.53434300      -0.08044325       0.08291502       0.40050840       0.27336898
V        7.72562170       7.57512379       1.61858690      -0.00891712       0.49538828      -0.30624080      -0.32793179       0.64601350      -0.11318272
V        6.18734455       9.31937313       0.01336300      -0.00240219      -0.42550615       0.76249500       0.23203176      -0.98039913       0.88483036
Cr       7.68951893      10.70348644       1.65359855       0.01775890      -0.34186231      -0.50847438      -0.09788354      -0.03494387       0.02651590
V        6.18775415       9.24643230       3.09478021      -0.19499223       0.25574014       0.29541568      -0.02795883      -0.03360971       0.09018695
V        4.70255566      10.74348545       1.59989667      -0.42287666      -0.43901344      -0.28892879       0.01540492      -0.05745664       0.08359148
V        6.26822853       6.23108864       3.08488250      -0.51499569      -0.53190903       0.14570733      -0.85826778      -0.57838911      -0.07473468
V        7.59404945      10.66744995       4.70789433      -0.21430593       0.16507638      -0.26590667      -0.00844929      -0.03656945      -0.08411765
Cr       4.57033443      10.78847504       4.60480642       0.43461892      -0.53964268      -0.12099408       0.67849469      -0.71847570       0.16006583
Cr       6.14159298       9.20047283       6.12765455      -0.29900133      -0.06040721      -0.10025262      -0.17741692      -0.27981794       0.15043965
V        4.57121992       7.68989134       4.56423521       0.51856850      -0.36677631       0.07427142       0.73429835       0.16413674       1.06403124
V        7.65852547       7.66253710       4.65894747       0.04453164      -0.41001946       0.28375663       0.07651858       0.19328067       0.06205831
Cr       6.31345654       6.09425831       6.13181448      -0.73653922       0.59058581      -0.35664615      -1.21165538       0.72270107      -0.09832501
V        7.68722820       7.77385473      10.64581585      -0.43892705       0.10152776      -0.19237785      -0.03540588      -0.06921551       0.04610744
V        6.19475889       9.18429947       9.12295341      -0.09491291      -0.17139175       0.43971294      -0.01818447      -0.01289891      -0.04421016
Cr       7.76458549      10.67438889      10.79890919      -0.29148120      -0.42632953      -0.33857956      -0.71569669      -0.10068041      -0.64447618
V        7.58244848      10.68159771       7.63955641       0.79687644      -0.17898123       0.26919892       0.29559550      -0.82863331      -0.19545075
V        4.74900007       7.73939562      10.58518982      -0.26342258       0.05103057       0.37955954      -0.62807035      -0.18252966       0.71919310
V        6.08102036       6.25393534       9.13034630       0.27124571       0.66345542       0.11605863       0.45057398       0.15769929      -0.48557705
Cr       4.72656918      10.59465790      10.69017792      -0.42866492       0.27993713      -0.04132571      -0.06040148       0.65234089       0.38113523
V        4.65612507      10.64627838       7.57849121       0.06476353      -0.10223770       0.25966376      -0.00796631       0.01570967      -0.09436440
Cr       4.70404863       7.69597244       7.55069733      -0.12987459      -0.65617537      -0.10831778      -0.01686171       0.01742587       0.01062108
Cr       7.65077114       7.69397497       7.57160139      -0.32780682       0.27829326       0.67451795       0.02307542      -0.11291346       0.08268828
V        6.13224602       6.18918085      12.21913624      -0.16846634      -0.21079111      -0.61238153       0.03051650       0.04838316      -0.06564188
V        4.69161558       7.76115608      13.69487762      -0.00919711      -0.55296009       0.20732502      -0.04482021      -0.16949998      -0.11862266
V        7.64709997      10.68027020      13.65795612       0.22093420      -0.16466507       0.01312746      -0.01200026       0.05012617       0.03743413
Cr       6.17585373       9.21632671      12.14776802      -0.01895721      -0.43729018       0.52813850      -0.01231583       0.01261269      -0.01325446
Cr       7.61159897       7.55394220      13.71130466      -0.04106484       0.52607491      -0.07710788      -0.29650307       0.60446113      -0.01951991
V        4.72073412      10.70402241      13.69751358       0.12559811      -0.02796253      -0.23631542      -0.51563352       0.16205698      -0.49533892
121
Lattice="9.04215026885 0.0 0.0 0.0 12.0474946843 0.0 0.0 0.0 15.109870339" Properties=species:S:1:pos:R:3:force:R:3:forces:R:3 config_type=sia_aa parent_id=99999999 generation=9 step=22 variance=0.6272461414337158 loss=0.6272461414337158 energy=-1090.2227502332512 pbc="T T T"
Cr       1.58777428       1.62977707       1.58130527       0.12336864      -0.55775086       0.26652868       0.44202515       0.21470241      -0.25518957
V        0.21202207       3.17072916       3.11386871      -0.30471008       0.36888619      -0.26157671      -0.04422791       0.06124914       0.01274340
V        3.10473847       3.07748556       0.04836458      -0.14483782       0.42276353       0.19493684      -0.12710851       0.04422545       0.47957551
V        1.61308873       4.65307331       1.69023204       0.01524858      -0.46384834      -0.57507944       0.33861035      -0.27287698      -0.47416243
V        3.18476892       3.11714125       3.17763901      -0.08509405       0.23608282      -0.31136076      -0.22497633       0.24878550      -0.77306569
V        0.09295606       3.16208935       0.08752246       0.28828765      -0.55882773      -0.26871112       0.83710670      -0.76625431      -0.01927078
V        3.07440495       0.07611842       3.03491235       0.37805461       0.63142304       0.02508166       0.49152201       0.47006387       0.46497044
V        0.15741374       0.24499707       3.20670295       0.15998867      -0.27372486      -0.29410120      -0.30054435      -0.72617555      -0.75082082
V        3.16070080       0.18973167       0.10969221      -0.35674453      -0.13707954      -0.19979723      -0.51400852      -0.05119675      -0.31698149
V        0.15318900       0.23668322       0.05412317       0.39279499      -0.14148923       0.51735942       0.18560718      -0.42010698       0.48076159
V        2.98561215       0.07951403       6.11221790       0.13511636       0.32327942       0.30897587       0.95986146      -0.03958445       0.08402318
V        0.16105035       3.21847391       6.13990116      -0.38956597      -0.09577405      -0.11714668       0.06897848      -0.00304920      -0.05786414
V        3.10747600       3.08718657       6.09205198      -0.22865876       0.48156623       0.44052387      -0.32434645       0.83031309       0.29102179
V        1.63310850       1.64756417       4.61300898       0.11349473      -0.20055457      -0.22876322       0.01129855      -0.04301121       0.05339941
Cr       1.66287756       4.64652872       4.64011621      -0.18164018      -0.13909514      -0.05803332       0.00391225       0.01434859      -0.01105658
V        0.14988342      -0.06939259       6.19545794      -0.50040781       0.98748333      -0.12993435      -0.37017810       1.00986993      -0.29200363
V        1.66291046       1.67980790      10.70746803       0.09284277       0.09780789      -0.04371548       0.02113268       0.01377543      -0.03070066
V        1.71611273       4.67300844      10.70491982       0.24891965      -0.13255286      -0.27944305       0.01695153      -0.05073459       0.10183446
V        3.08507252       3.17396760       9.13239956      -0.24226432       0.20586085       0.21024379       0.00724849       0.03292702       0.00398692
V        0.14819038      -0.00614337       9.05594254      -0.24410837       0.80602365       0.36256282      -0.02804887       0.55902362       0.79833055
Cr       1.58770347       4.62592316       7.63058043       0.22888302       0.12901640       0.34742727       0.03949869       0.00266916      -0.01510306
V        3.09287882       0.19097036       9.07533455       0.21686370      -0.44867982       0.95057070       0.35754380      -0.70507115       0.53367990
V        0.14400646       3.19741058       9.14672661       0.16815693      -0.09169343       0.01600119      -0.06202989      -0.00988698      -0.05340381
V        1.57746947       1.61637866       7.64568853      -0.07467103       0.04581711      -0.30137985       0.01189741       0.01165329      -0.01865758
Cr       1.65478063       1.63389099      13.60641289       0.21551379       0.48192373       0.26571851      -0.00538460       0.15282787       0.00835043
Cr       0.16805913       3.05936027      12.17750740       0.28768070       0.04952769       0.07265712       0.01039706      -0.06509767      -0.00219258
V        1.66931975       4.66813374      13.71343422      -0.07634035      -0.58774094      -0.14681849      -0.19638571      -0.87097806      -0.51346773
V        0.17902547       0.11589651      12.18876743      -0.31214203      -0.21112271       0.16380953       0.00602491       0.05600729      -0.03111887
Cr       3.12165999       3.23604465      12.10221004       0.15023462      -0.36455990       0.02632671       0.03484768      -0.65145326       0.69060254
V        4.59904766       1.58240497       7.56298685      -0.13825882       0.06305176      -0.06047647       0.22873048      -0.08667886      -0.04410655
Cr       3.18740988       0.15531082      12.16310978       0.13594777       0.06708415       0.01240439      -0.02070715       0.01379971      -0.02177299
V        1.61757207       7.72290277       1.68786979      -0.31573477      -0.43787051      -0.11670711      -0.09160735      -0.53751755       0.06039640
V        0.07230425       9.14947414       0.18643473      -0.41727118       0.08700563       0.07074955      -0.42282400       0.22660115       0.00765929
V        1.59431517      10.71650410       1.63156044       0.12451573      -0.14523481       0.18908651       0.02349175      -0.01325312       0.01742173
V        3.16004086       9.23169041       0.27560964       0.30973414       0.10444106      -0.38234872       0.15353662      -0.10019469      -1.02319622
V        3.10139680       6.10040474       0.17582661       0.21114748      -0.14190603       0.18283750       0.69473493      -0.26018137       0.22353852
V        3.11577201       6.23533106       3.13523340       0.24864179      -0.36286768       0.51937467      -0.13218217      -1.24025714       0.20358643
V        0.16024837       6.13068724       3.16589355       0.02726826       0.40408804      -0.41071015       0.02516731      -0.01082786       0.00183580
V        3.22175956       9.17651272       3.07346797      -0.19989548       0.23965565       0.39695800      -0.62758797       0.52661133       0.76898330
V        0.11948921       9.14432240       3.17236328       0.18811493      -0.03344905      -0.22755072      -0.27313036       0.40920341      -0.16979508
V        0.07858809       6.01413774       0.01443393       0.39416593       0.51259765       0.86201062       0.09370851       0.84990597       0.97549075
V        0.15278593       6.12295198       6.15803766      -0.04190235      -0.08556814      -0.30348755       0.02902830       0.00115339      -0.00490475
V        3.08339047       6.11847305       6.14352465       0.20860918      -0.05229005       0.17437783      -0.02909721       0.00449924      -0.00703540
Cr       3.13075924       9.18349934       6.12014103      -0.19956182       0.02006404       0.05763686       0.03317077      -0.01064342       0.00270391
V        1.63012433       7.63324022       4.68146229      -0.03611526       0.43978534      -0.11759395       0.11969897       0.64770609       0.12179386
V        1.61964452      10.59825230       4.64622498      -0.14714380       0.03495247       0.16214488      -0.03032218      -0.20432827       0.08403350
Cr       0.09735283       9.11717987       6.18070316       0.35920676       0.03519844      -0.36619116      -0.00198791       0.01535731       0.03400673
V        1.65670049       7.65413094      10.52793121       0.37468230      -0.84800609      -0.05239464       0.04499210      -0.00633560      -0.02122219
V        1.70231128      10.67893791      10.61881638       0.19461945       0.13702701       0.51475732       0.11085578      -0.17624435       0.67473716
V        3.28925323       9.20838547       9.24749374      -0.60058442       0.52209752      -0.36571525      -0.74667567      -0.05343581      -0.97565353
Cr       1.63549542      10.58586884       7.62224865       0.34446019      -0.21103680      -0.27389820      -0.06514058       0.00564150       0.06714669
Cr       0.17483069       9.13450050       9.15407944      -0.42468140      -0.45623039      -0.31589002      -0.02767668       0.04595497      -0.03438471
V        0.06094167       6.03544569       9.10101032       0.26157478       0.32109079      -0.72278924       0.21960682       0.67458856      -0.58429599
V        1.62922513       7.67330313       7.64055109       0.21425658      -0.29311720      -0.27242643       0.02162400       0.00068698       0.01680330
Cr       3.03365684       6.19021273       9.06806946       0.13114898      -0.07698032       0.73799726       0.54264307      -0.12907526       0.32300338
V        1.83789206       7.82929087      13.95349407       0.07904385       0.27709667       0.22855053       0.03574441      -0.03017450      -0.02246065
V        0.06578267       9.03713036      12.29168987       0.12510576       1.01786707      -0.07278165       0.08601403       1.45878494      -0.57102507
V        1.56137753      10.56926155      13.68756294       0.43598145       0.45394227       0.10056438       0.81861043       0.76943052      -0.02613559
Cr       3.09721398       9.12751293      12.18468380       0.70566422       0.22470573      -0.21984451       0.46106219       0.44235691      -0.12796110
V        0.59401715       6.62614107      12.63159275       0.04506623       0.36969481       0.03009417       0.03372283      -0.04761159       0.02227891
V        3.20681405       6.24221373      12.18448353       0.39725823      -0.16635280       0.15196626       0.01297737      -0.04354880       0.03792791
V        7.69138288       1.60698271       1.64543355       0.38612614       0.56528880       0.21656025      -0.02042387       0.02575468       0.03948359
V        6.27365351       0.17413667       0.08561777      -0.88431171      -0.58113194       0.15639659      -0.46352825      -0.60070026       0.27215135
V        7.67092896       4.60501862       1.51365852       0.02175996      -0.47104544       0.72155284      -0.01900945       0.10983395       0.61546767
V        6.20141935       3.07240152       3.11622787      -0.21428843       0.57691073      -0.30100857      -0.49381995       0.76554221      -0.16099970
Cr       4.71080446       4.50662851       1.57626605      -0.17319122       0.54314502       0.39128033      -0.31335831       0.48387885       0.32241806
V        4.68934679       1.58373928       1.64253199      -0.37853052       0.23090911      -0.15344603       0.00667434      -0.02797216       0.01862137
Cr       6.18278503       0.09051629       3.26241302       0.22981768      -0.16057531      -0.49639897      -0.19820151      -0.04582703      -0.79293764
V        6.18385839       3.04262304       0.17024764      -0.03868783       0.26985406      -0.74226529      -0.43631992       0.41139728      -0.43178353
V        7.66385221       1.76061904       4.71328640       0.22401344      -0.64964792       0.14370252      -0.38992628      -0.79730821      -0.18970940
Cr       6.12150192       3.13799953       6.09003448       0.18916830       0.20292950      -0.03475224      -0.04263523       0.01772590      -0.02003457
V        7.61300325       4.76708603       4.57200766       0.17616632      -0.40628320       0.36241230       0.07941645      -0.75452656       0.58397293
V        4.59505796       4.67815447       4.63472795       0.23974770      -0.01977110      -0.36023129       0.95721471      -0.24358402       0.04774654
V        4.71284866       1.62079334       4.64028788      -0.47069947      -0.08962739      -0.23536131       0.00192924       0.01719992       0.00865178
Cr       6.11506987       0.13653870       6.12260294      -0.02249125      -0.28372874      -0.16885494       0.00629439       0.01007203      -0.01800648
V        6.16135073       0.03537927       9.22528744      -0.20067602       0.26033203      -0.31201050      -0.02134407      -0.06818351      -0.03547071
V        4.61615419       4.76676226      10.78976250      -0.70661699      -0.00015184      -0.85645687      -0.40375933      -0.51571667      -0.95808256
V        7.62239313       1.56698978       7.56462097       1.16094605      -0.03019936      -0.15976805       0.00471310      -0.00106067      -0.03700202
V        7.63864183       1.72402406      10.62101173      -0.06716669      -0.45099652      -0.02603820       0.70429552      -1.18304229       0.61158603
V        5.95283413       2.83160400       9.02045250      -0.34720181       0.45736300       0.13315015       0.10269284       1.31417739      -0.23404197
Cr       7.14563656       4.25254631      10.20207024       0.43118762      -0.37569719       0.41132473       0.02089578       0.03157085       0.01584055
V        4.74477100       1.61114109      10.73036766      -0.55886785       0.05101520       0.06849468      -1.21713710      -0.41559225       0.31734401
V        7.55613899       4.61481142       7.52637720       0.33912771      -0.10549721      -0.31808309      -0.00249779      -0.00663912       0.00028387
V        4.56001854       4.69337320       7.66101694       0.07568992      -0.63458670      -0.42083452       0.34082755      -0.14391761      -0.37049162
Cr       8.42555141       5.43448687      11.43050575      -0.60199168      -0.78846703      -0.03709646      -0.06107558      -0.80530918      -0.43029428
Cr       6.18750715       0.09246626      12.14701462      -0.11559591       0.58186782      -0.11723473      -0.05161409      -0.02086468      -0.04617476
V        7.67344093       1.61393189      13.66634178      -0.08497016       0.48898807      -0.23145881       0.18726456       0.27851510      -0.21876839
V        4.61095381       4.60313797      13.69646740       0.19673503       0.02069819       0.45055840       0.01663807       0.00723516       0.00478716
V        4.63377666       1.60310352      13.61256599       0.23184581      -0.12327891       0.14271754      -0.00297736       0.04531080      -0.00477476
V        7.68784428       4.57574224      13.69628239      -0.13233864       0.38334763       0.75061219      -0.06272425      -0.02512548       0.01047079
V        6.18065453       3.14641809      12.20330143      -0.29975177      -0.50467037       0.23487786       0.03100179       0.04693403       0.05074489
V        4.57624292       7.55546951       1.79348862       0.26681468       0.26167138      -1.09056485       0.86594856       0.55424309      -1.32434976
V        6.10981894       6.07126141       0.07398359       0.17081276       0.53434300      -0.08044325       0.16117764       0.18748149       0.14394939
V        7.72583342       7.56760073       1.61165273      -0.00891712       0.49538828      -0.30624080      -0.31604028       0.70591593      -0.09631425
V        6.21251345       9.30868149       0.01638735      -0.00240219      -0.42550615       0.76249500      -0.02061926      -0.88468564       0.82130659
Cr       7.68942976      10.69473648       1.65376222       0.01775890      -0.34186231      -0.50847438      -0.09035772       0.01059454       0.03807357
V        6.17646170       9.23424053       3.10348988      -0.19499223       0.25574014       0.29541568       0.04467379       0.04728268       0.03385986
V        4.70970392      10.74307251       1.60999691      -0.42287666      -0.43901344      -0.28892879       0.02940665      -0.03977901      -0.01996232
V        6.27120924       6.23956823       3.07650399      -0.51499569      -0.53190903       0.14570733      -0.85076809      -0.66597515      -0.01499544
V        7.58938503      10.66693592       4.69459677      -0.21430593       0.16507638      -0.26590667      -0.02251183       0.00996076       0.04234251
Cr       4.57262421      10.81197166       4.59869003       0.43461892      -0.53964268      -0.12099408       0.64122409      -0.83501959       0.18513513
Cr       6.11568260       9.20221424       6.14925385      -0.29900133      -0.06040721      -0.10025262      -0.05762640      -0.25083941      -0.02373081
V        4.55010605       7.66623259       4.52628565       0.51856850      -0.36677631       0.07427142       0.83783740       0.33796835       1.33644199
V        7.66632795       7.68803787       4.66617775       0.04453164      -0.41001946       0.28375663      -0.00235358       0.03953425      -0.00415552
Cr       6.33768749       6.11389399       6.10505438      -0.73653922       0.59058581      -0.35664615      -1.36641622       0.61017829       0.05488141
V        7.69020319       7.76183414      10.64524078      -0.43892705       0.10152776      -0.19237785       0.00822642      -0.03424870      -0.00573874
V        6.19365931       9.18645287       9.13221455      -0.09491291      -0.17139175       0.43971294       0.00920550       0.03847618      -0.06757981
Cr       7.72296715      10.66036320      10.83799076      -0.29148120      -0.42632953      -0.33857956      -0.51579940       0.02940240      -0.83558702
V        7.58106136      10.70379543       7.64004993       0.79687644      -0.17898123       0.26919892       0.23878442      -0.98646033      -0.16180792
V        4.75375509       7.74617767      10.58576775      -0.26342258       0.05103057       0.37955954      -0.67663544      -0.24822012       0.72832012
V        6.07216358       6.29043484       9.08489799       0.27124571       0.66345542       0.11605863       0.53138739      -0.17335960      -0.24570636
Cr       4.72384214      10.58005333      10.70897961      -0.42866492       0.27993713      -0.04132571      -0.08308768       0.80773652       0.30970192
V        4.66232920      10.64594650       7.56143236       0.06476353      -0.10223770       0.25966376      -0.08037769       0.06639277       0.07209429
Cr       4.68857336       7.70264721       7.56601381      -0.12987459      -0.65617537      -0.10831778       0.03043372       0.04966401      -0.09923492
Cr       7.65188885       7.66342974       7.59274054      -0.32780682       0.27829326       0.67451795      -0.03220787       0.08941238      -0.02043915
V        6.13484335       6.18790865      12.21625328      -0.16846634      -0.21079111      -0.61238153       0.00687135       0.03813893      -0.06037793
V        4.67695141       7.73985291      13.68362904      -0.00919711      -0.55296009       0.20732502       0.02548092       0.02474895      -0.02370450
V        7.65118313      10.69992065      13.66674805       0.22093420      -0.16466507       0.01312746      -0.00838467      -0.04057136       0.05108878
Cr       6.16777229       9.22191525      12.14653969      -0.01895721      -0.43729018       0.52813850       0.03766881      -0.01723298      -0.02378755
Cr       7.56883955       7.57916260      13.68862343      -0.04106484       0.52607491      -0.07710788      -0.08103384       0.45956111       0.09441435
V        4.72064161      10.72675800      13.67187023       0.12559811      -0.02796253      -0.23631542      -0.49101922      -0.02901736      -0.25275362
121
Lattice="9.04215026885 0.0 0.0 0.0 12.0474946843 0.0 0.0 0.0 15.109870339" Properties=species:S:1:pos:R:3:force:R:3:forces:R:3 config_type=sia_aa parent_id=99999999 generation=9 step=33 variance=0.7179027795791626 loss=0.7179027795791626 energy=-1090.1057641517193 pbc="T T T"
Cr       1.58444548       1.63273013       1.57719696       0.12336864      -0.55775086       0.26652868       0.46532613       0.18956465      -0.21099958
V        0.20642705       3.18009472       3.11899233      -0.30471008       0.36888619      -0.26157671      -0.01300811       0.00857758      -0.01446573
V        3.09565353       3.07691360       0.06719567      -0.14483782       0.42276353       0.19493684      -0.08329549       0.05653266       0.33404338
V        1.61345720       4.64637804       1.69127285       0.01524858      -0.46384834      -0.57507944       0.30608487      -0.23227668      -0.45662558
V        3.18192267       3.11721516       3.18287206      -0.08509405       0.23608282      -0.31136076      -0.21411452       0.23401156      -0.78787249
V        0.09468682       3.15474772       0.07791030       0.28828765      -0.55882773      -0.26871112       0.80835629      -0.73583889       0.02562289
V        3.07693982       0.08683081       3.03546596       0.37805461       0.63142304       0.02508166       0.48267817       0.39256495       0.48045301
V        0.14549577       0.25177762       3.18493080       0.15998867      -0.27372486      -0.29410120      -0.18608856      -0.80432177      -0.60375583
V        3.15365887       0.19368364       0.10573104      -0.35674453      -0.13707954      -0.19979723      -0.46626472      -0.08627543      -0.27520427
V        0.18582207       0.22431736       0.06858978       0.39279499      -0.14148923       0.51735942      -0.06294315      -0.33610678       0.38958675
V        2.97252011       0.08977419       6.10933065       0.13511636       0.32327942       0.30897587       1.11453509      -0.16616413       0.10946819
V        0.17353198       3.22409797       6.13329506      -0.38956597      -0.09577405      -0.11714668      -0.01419033      -0.01129430      -0.00270858
V        3.09043050       3.08011937       6.09582472      -0.22865876       0.48156623       0.44052387      -0.15755717       0.88803494       0.27365234
V        1.63229728       1.64334738       4.62190962       0.11349473      -0.20055457      -0.22876322      -0.00973436      -0.03077186      -0.04462367
Cr       1.66546679       4.65402794       4.63843441      -0.18164018      -0.13909514      -0.05803332      -0.02295442       0.00905577       0.01534425
V        0.15964143      -0.07641472       6.19636631      -0.50040781       0.98748333      -0.12993435      -0.39871880       1.04974365      -0.33029458
V        1.66406417       1.68089890      10.69442463       0.09284277       0.09780789      -0.04371548       0.01232249       0.01787199       0.04277698
V        1.71460366       4.66210222      10.71961498       0.24891965      -0.13255286      -0.27944305       0.00611041       0.01906705      -0.01651446
V        3.08342242       3.17463160       9.12589073      -0.24226432       0.20586085       0.21024379      -0.00480646       0.05274292       0.02275832
V        0.13949525      -0.01847216       9.05816269      -0.24410837       0.80602365       0.36256282       0.03488079       0.63457584       0.83079481
Cr       1.59142089       4.62797737       7.62641621       0.22888302       0.12901640       0.34742727      -0.00124649       0.00260980       0.00626400
V        3.09268117       0.20211002       9.08032703       0.21686370      -0.44867982       0.95057070       0.36041188      -0.76349705       0.48098260
V        0.13753702       3.19272280       9.13629341       0.16815693      -0.09169343       0.01600119       0.03589565       0.01317593       0.00083394
V        1.57545805       1.61631262       7.64337444      -0.07467103       0.04581711      -0.30137985       0.00921826       0.00700161      -0.00288539
Cr       1.65095401       1.65556157      13.60696697       0.21551379       0.48192373       0.26571851       0.02007352       0.04201901      -0.00755098
Cr       0.17255570       3.07018709      12.17907906       0.28768070       0.04952769       0.07265712      -0.00681442      -0.13801053      -0.01382282
V        1.66697586       4.67284346      13.70156288      -0.07634035      -0.58774094      -0.14681849      -0.19648218      -0.92202997      -0.42511863
V        0.18738213       0.13003595      12.18548393      -0.31214203      -0.21112271       0.16380953      -0.01907687      -0.01589309       0.02984433
Cr       3.15094686       3.24179435      12.10277367       0.15023462      -0.36455990       0.02632671      -0.17272542      -0.66828358       0.67625421
V        4.63026094       1.57367575       7.54986811      -0.13825882       0.06305176      -0.06047647       0.01593481      -0.02804488       0.02972437
Cr       3.19421744       0.16135690      12.15030575       0.13594777       0.06708415       0.01240439      -0.05020584      -0.01006467       0.02975892
V        1.61350679       7.70720768       1.68161035      -0.31573477      -0.43787051      -0.11670711      -0.13633230      -0.44488236       0.02483139
V        0.01652548       9.17257309       0.18604395      -0.41727118       0.08700563       0.07074955       0.02455874       0.02618653       0.00989827
V        1.59635329      10.70785618       1.64326096       0.12451573      -0.14523481       0.18908651      -0.00443775       0.06583470      -0.01562743
V        3.15650415       9.23506355       0.27861249       0.30973414       0.10444106      -0.38234872       0.18044834      -0.16797289      -1.05321300
V        3.06616259       6.08821487       0.17247178       0.21114748      -0.14190603       0.18283750       0.86916518      -0.19927399       0.23396692
V        3.11392045       6.25589705       3.14425802       0.24864179      -0.36286768       0.51937467      -0.23112842      -1.43838835       0.12694387
V        0.16109788       6.12552118       3.16115189       0.02726826       0.40408804      -0.41071015       0.01134284       0.02293734       0.00462425
V        3.22154784       9.19161415       3.05267143      -0.19989548       0.23965565       0.39695800      -0.62559903       0.44207463       0.86283040
V        0.11519038       9.12649059       3.15961051       0.18811493      -0.03344905      -0.22755072      -0.26981068       0.53668392      -0.13810766
V        0.07956484       6.01522827       0.01125536       0.39416593       0.51259765       0.86201062       0.04377674       0.80525494       0.95360923
V        0.15774116       6.12195826       6.15169477      -0.04190235      -0.08556814      -0.30348755      -0.00184427       0.02472962      -0.00251296
V        3.07780409       6.11244345       6.14519739       0.20860918      -0.05229005       0.17437783      -0.00061823       0.04131246      -0.01986387
Cr       3.13289356       9.16439342       6.11995459      -0.19956182       0.02006404       0.05763686       0.03804204       0.13460693       0.02769413
V        1.62269986       7.66275835       4.67279673      -0.03611526       0.43978534      -0.11759395       0.14938298       0.41939434       0.19154534
V        1.62162471      10.57214928       4.66075230      -0.14714380       0.03495247       0.16214488      -0.03484280      -0.00910164      -0.03846399
Cr       0.11063281       9.10984898       6.19191742       0.35920676       0.03519844      -0.36619116      -0.07724890       0.03218283      -0.03098786
V        1.65441680       7.64331532      10.52494812       0.37468230      -0.84800609      -0.05239464       0.05497633       0.04378911      -0.03602008
V        1.70899129      10.67951870      10.61782932       0.19461945       0.13702701       0.51475732       0.06568816      -0.17527917       0.70207882
V        3.30720806       9.21179771       9.24818993      -0.60058442       0.52209752      -0.36571525      -0.86334598      -0.07361304      -0.91880602
Cr       1.62376857      10.59077168       7.63067055       0.34446019      -0.21103680      -0.27389820       0.02014214      -0.04731627       0.05275276
Cr       0.15840097       9.13781261       9.15515232      -0.42468140      -0.45623039      -0.31589002       0.06418856       0.00998477      -0.00362033
V        0.02133932       6.02827454       9.09003162       0.26157478       0.32109079      -0.72278924       0.52060431       0.68839687      -0.52801549
V        1.63229978       7.66921663       7.64604378       0.21425658      -0.29311720      -0.27242643      -0.01312459       0.00545012      -0.01519194
Cr       3.01823354       6.20857191       9.06954193       0.13114898      -0.07698032       0.73799726       0.62827712      -0.24662837       0.31696188
V        1.84378850       7.82738018      13.95001793       0.07904385       0.27709667       0.22855053      -0.03064723      -0.00716158      -0.01674873
V        0.06370002       9.02842236      12.29871273       0.12510576       1.01786707      -0.07278165       0.09079873       1.45452547      -0.59107041
V        1.57362449      10.54439068      13.70211601       0.43598145       0.45394227       0.10056438       0.71581739       0.94881189      -0.14632033
Cr       3.10876513       9.13967133      12.17556858       0.70566422       0.22470573      -0.21984451       0.41358608       0.40216875      -0.05516353
V        0.59302664       6.62874222      12.63018990       0.04506623       0.36969481       0.03009417      -0.08451794      -0.07963976       0.01209450
V        3.20691824       6.23397827      12.19379425       0.39725823      -0.16635280       0.15196626       0.01264568       0.00917905      -0.01784693
V        7.68320847       1.61433351       1.65070498       0.38612614       0.56528880       0.21656025       0.05013017      -0.04265945      -0.05612893
V        6.28164148       0.15966451       0.08607750      -0.88431171      -0.58113194       0.15639659      -0.52451271      -0.50685966       0.26991832
V        7.67428446       4.59146786       1.51477504       0.02175996      -0.47104544       0.72155284      -0.01970430       0.16261196       0.58492339
V        6.20390940       3.07176518       3.10388446      -0.21428843       0.57691073      -0.30100857      -0.54336691       0.76713771      -0.06597844
Cr       4.70044136       4.49950409       1.57167625      -0.17319122       0.54314502       0.39128033      -0.24588692       0.50154328       0.35554981
V        4.68839312       1.58335018       1.64137173      -0.37853052       0.23090911      -0.15344603       0.01116347      -0.04346238       0.00693502
Cr       6.18616152       0.08547148       3.25199437       0.22981768      -0.16057531      -0.49639897      -0.19098625      -0.02217880      -0.71684456
V        6.18384981       3.02651310       0.15716672      -0.03868783       0.26985406      -0.74226529      -0.43271554       0.47231561      -0.35483402
V        7.68104601       1.75885427       4.71372175       0.22401344      -0.64964792       0.14370252      -0.50859046      -0.78036487      -0.20926921
Cr       6.11390305       3.14497876       6.08574629       0.18916830       0.20292950      -0.03475224       0.01782642      -0.01094788      -0.00324398
V        7.60641384       4.76661825       4.57357836       0.17616632      -0.40628320       0.36241230       0.12017848      -0.73895502       0.55953908
V        4.59051180       4.67148066       4.63342381       0.23974770      -0.01977110      -0.36023129       0.95430851      -0.20398614       0.07177757
V        4.71117973       1.62539899       4.64080524      -0.47069947      -0.08962739      -0.23536131       0.03678527       0.00649588      -0.01878949
Cr       6.13104057       0.15094826       6.12326384      -0.02249125      -0.28372874      -0.16885494      -0.04572005      -0.11316439      -0.02287857
V        6.16183519       0.02459392       9.21390820      -0.20067602       0.26033203      -0.31201050      -0.02378142       0.02496440       0.07104258
V        4.60229826       4.76588488      10.78701496      -0.70661699      -0.00015184      -0.85645687      -0.31871337      -0.49266586      -0.95386124
V        7.62839556       1.56122983       7.56349850       1.16094605      -0.03019936      -0.15976805      -0.07171167       0.04690841      -0.00839079
V        7.62553310       1.74581444      10.62307930      -0.06716669      -0.45099652      -0.02603820       0.76662242      -1.34780002       0.59343135
V        5.92681646       2.84720111       9.04031277      -0.34720181       0.45736300       0.13315015       0.26428032       1.21172273      -0.38132986
Cr       7.14668322       4.24524450      10.20907402       0.43118762      -0.37569719       0.41132473      -0.03759293       0.01676724      -0.03517269
V        4.73741055       1.59831727      10.72679615      -0.55886785       0.05101520       0.06849468      -1.19102085      -0.35632676       0.34851390
V        7.55715322       4.60642195       7.52604532       0.33912771      -0.10549721      -0.31808309      -0.00623266      -0.00290031      -0.06366438
V        4.57663918       4.68760729       7.65155602       0.07568992      -0.63458670      -0.42083452       0.24319963      -0.06906207      -0.32849056
Cr       8.41963768       5.42108583      11.42875099      -0.60199168      -0.78846703      -0.03709646       0.08269506      -0.62952089      -0.33296692
Cr       6.18085814       0.08590636      12.14124298      -0.11559591       0.58186782      -0.11723473      -0.00643130       0.02084285       0.01035441
V        7.66601276       1.61972666      13.65937614      -0.08497016       0.48898807      -0.23145881       0.29122439       0.18735045      -0.18301672
V        4.61613607       4.60665083      13.70344543       0.19673503       0.02069819       0.45055840       0.00758631       0.01187326       0.01377723
V        4.62807751       1.60475600      13.61148739       0.23184581      -0.12327891       0.14271754       0.02120499       0.01901480      -0.00430497
V        7.68837881       4.57312918      13.69687462      -0.13233864       0.38334763       0.75061219      -0.07931679       0.02909039       0.01879786
V        6.17381620       3.15138841      12.21022129      -0.29975177      -0.50467037       0.23487786       0.00060162       0.02172783       0.02658458
V        4.56479311       7.52173281       1.78978276       0.26681468       0.26167138      -1.09056485       0.91812038       0.73702061      -1.31915283
V        6.13676882       6.09472990       0.09912004       0.17081276       0.53434300      -0.08044325      -0.01594402       0.02046240      -0.04748064
V        7.73399925       7.55630207       1.58882105      -0.00891712       0.49538828      -0.30624080      -0.39578697       0.75147671       0.08832955
V        6.23320675       9.29579449       0.02030313      -0.00240219      -0.42550615       0.76249500      -0.26024282      -0.83358878       0.79870975
Cr       7.67524004      10.69778252       1.66167045       0.01775890      -0.34186231      -0.50847438       0.01089820       0.00753596       0.00899243
V        6.18358374       9.24019718       3.11056232      -0.19499223       0.25574014       0.29541568      -0.02106986      -0.05393838      -0.02013706
V        4.72175741      10.73875618       1.61226296      -0.42287666      -0.43901344      -0.28892879      -0.04667326      -0.00670344      -0.08006521
V        6.27884007       6.24400997       3.09170508      -0.51499569      -0.53190903       0.14570733      -0.88248372      -0.67348671      -0.10083763
V        7.58485222      10.66695786       4.70279312      -0.21430593       0.16507638      -0.26590667       0.01443953       0.00520188      -0.00988848
Cr       4.59646225      10.81836796       4.58581161       0.43461892      -0.53964268      -0.12099408       0.48599300      -0.79217118       0.23786569
Cr       6.10175323       9.15558434       6.15447903      -0.29900133      -0.06040721      -0.10025262      -0.01395836       0.00018151      -0.00335278
V        4.51726341       7.67610264       4.51246786       0.51856850      -0.36677631       0.07427142       1.04467154       0.33186084       1.44631135
V        7.67195129       7.69712687       4.65191031       0.04453164      -0.41001946       0.28375663      -0.03364543      -0.04725459       0.06968915
Cr       6.33338404       6.11357307       6.10775328      -0.73653922       0.59058581      -0.35664615      -1.35023618       0.59270352      -0.00237271
V        7.69307280       7.76307917      10.64108658      -0.43892705       0.10152776      -0.19237785       0.02070301      -0.03959505       0.01748271
V        6.19595718       9.19318771       9.12801361      -0.09491291      -0.17139175       0.43971294      -0.02182296      -0.02345607      -0.05103232
Cr       7.70097017      10.62691975      10.87568092      -0.29148120      -0.42632953      -0.33857956      -0.39134139       0.23866805      -1.04828358
V        7.59727526      10.71370316       7.63688278       0.79687644      -0.17898123       0.26919892       0.09019759      -1.11589956      -0.11186245
V        4.75258780       7.75479603      10.60424423      -0.26342258       0.05103057       0.37955954      -0.61700636      -0.33724317       0.53137201
V        6.13681650       6.28189516       9.06607056       0.27124571       0.66345542       0.11605863       0.10763176      -0.04145665      -0.11275770
Cr       4.72878408      10.58674812      10.74767017      -0.42866492       0.27993713      -0.04132571      -0.14776602       0.78721046       0.06412357
V        4.65057182      10.65442562       7.56691790       0.06476353      -0.10223770       0.25966376       0.03210227       0.00336855      -0.00941523
Cr       4.69451571       7.70797062       7.55102634      -0.12987459      -0.65617537      -0.10831778       0.02288387       0.03299405      -0.05805146
Cr       7.64725971       7.66930294       7.58725691      -0.32780682       0.27829326       0.67451795      -0.01820273       0.01604671       0.00601865
V        6.13122272       6.19024086      12.20149326      -0.16846634      -0.21079111      -0.61238153       0.01087078      -0.00332750       0.00277381
V        4.67783785       7.74305820      13.68275356      -0.00919711      -0.55296009       0.20732502      -0.00463352      -0.00783307       0.00150493
V        7.65146780      10.70181274      13.66350555       0.22093420      -0.16466507       0.01312746       0.00143193       0.00180968       0.07871926
Cr       6.17221451       9.21443081      12.14281559      -0.01895721      -0.43729018       0.52813850      -0.02556809       0.00905067       0.00346750
Cr       7.52459669       7.57496166      13.68369865      -0.04106484       0.52607491      -0.07710788       0.18185344       0.45780897       0.08697837
V        4.71229744      10.72991180      13.66129494       0.12559811      -0.02796253      -0.23631542      -0.43848214      -0.04948233      -0.13760063
121
Lattice="9.04215026885 0.0 0.0 0.0 12.0474946843 0.0 0.0 0.0 15.109870339" Properties=species:S:1:pos:R:3:force:R:3:forces:R:3 config_type=sia_aa parent_id=99999999 generation=9 step=44 variance=0.7728775143623352 loss=0.7728775143623352 energy=-1089.9687702241768 pbc="T T T"
Cr       1.57501817       1.62625599       1.55355000       0.12336864      -0.55775086       0.26652868       0.54819393       0.23098192      -0.00142734
V        0.19773136       3.18527985       3.11485815      -0.30471008       0.36888619      -0.26157671       0.03785050      -0.01948937       0.01755156
V        3.09645319       3.08933592       0.12093250      -0.14483782       0.42276353       0.19493684      -0.03789661      -0.02551440      -0.04897498
V        1.61732948       4.63535357       1.68216395       0.01524858      -0.46384834      -0.57507944       0.24903916      -0.17598811      -0.36962396
V        3.18110776       3.10714626       3.18465590      -0.08509405       0.23608282      -0.31136076      -0.21061033       0.29105544      -0.78611171
V        0.08844227       3.13588500       0.07868443       0.28828765      -0.55882773      -0.26871112       0.90380526      -0.54295528       0.00996332
V        3.07782006       0.08486368       3.04341078       0.37805461       0.63142304       0.02508166       0.50671887       0.39278454       0.42295480
V        0.14694318       0.25430328       3.18883896       0.15998867      -0.27372486      -0.29410120      -0.20891277      -0.83711165      -0.63699377
V        3.13998580       0.18501124       0.09207616      -0.35674453      -0.13707954      -0.19979723      -0.39022022      -0.01832567      -0.20871083
V        0.20410845       0.22043988       0.09115642       0.39279499      -0.14148923       0.51735942      -0.21717636      -0.36198747       0.21053521
V        2.97248745       0.08199695       6.11038685       0.13511636       0.32327942       0.30897587       1.12199891      -0.09849492       0.07697091
V        0.18006897       3.22061300       6.13400841      -0.38956597      -0.09577405      -0.11714668      -0.02209268       0.01983825      -0.00703188
V        3.08725977       3.07945251       6.10942316      -0.22865876       0.48156623       0.44052387      -0.12640119       0.88271248       0.14045799
V        1.62628901       1.64516473       4.61196804       0.11349473      -0.20055457      -0.22876322       0.04110667      -0.04359969       0.04897476
Cr       1.66197848       4.65605068       4.64358282      -0.18164018      -0.13909514      -0.05803332       0.01925157       0.00999102      -0.01582371
V        0.16553044      -0.08361732       6.20162010      -0.50040781       0.98748333      -0.12993435      -0.40755391       1.07010460      -0.36430728
V        1.66898882       1.68009543      10.70706272       0.09284277       0.09780789      -0.04371548      -0.01243333      -0.01818055      -0.04275151
V        1.71473193       4.66851950      10.71300316       0.24891965      -0.13255286      -0.27944305       0.01448664      -0.03556216       0.03431172
V        3.08507276       3.17952824       9.12440872      -0.24226432       0.20586085       0.21024379       0.00950120       0.04549914      -0.02314439
V        0.12279755      -0.02189184       9.05570889      -0.24410837       0.80602365       0.36256282       0.15279360       0.64757562       0.86284918
Cr       1.59592724       4.63109684       7.62787437       0.22888302       0.12901640       0.34742727      -0.01020578      -0.03409788       0.00934092
V        3.10240889       0.20406836       9.06268024       0.21686370      -0.44867982       0.95057070       0.26694414      -0.78374386       0.60862362
V        0.13691160       3.19131064       9.13342381       0.16815693      -0.09169343       0.01600119       0.05070644       0.00273328       0.01916000
V        1.57449245       1.61238229       7.64440060      -0.07467103       0.04581711      -0.30137985       0.01027649       0.01866634       0.00955624
Cr       1.65811563       1.66184032      13.60744381       0.21551379       0.48192373       0.26571851       0.01694626      -0.00800903       0.01260634
Cr       0.17777346       3.05372739      12.17834473       0.28768070       0.04952769       0.07265712       0.01201716      -0.02005900      -0.00441900
V        1.66796243       4.68102551      13.69318962      -0.07634035      -0.58774094      -0.14681849      -0.20521468      -1.05696940      -0.37002492
V        0.18185270       0.11111348      12.19081783      -0.31214203      -0.21112271       0.16380953       0.02666877       0.04268896      -0.02198241
Cr       3.17840743       3.24713826      12.09203720       0.15023462      -0.36455990       0.02632671      -0.32598627      -0.68522471       0.76049155
V        4.62909174       1.56888497       7.55484486      -0.13825882       0.06305176      -0.06047647       0.02100412       0.01245365      -0.02331045
Cr       3.18231463       0.16362472      12.15473557       0.13594777       0.06708415       0.01240439       0.01791777       0.00384576      -0.00434671
V        1.59439325       7.66933870       1.66744983      -0.31573477      -0.43787051      -0.11670711      -0.00623362      -0.21317576       0.09287014
V        0.02031986       9.16705418       0.18074144      -0.41727118       0.08700563       0.07074955       0.03457754       0.04653716       0.05074168
V        1.59741735      10.71919441       1.64612222       0.12451573      -0.14523481       0.18908651       0.00852582      -0.07435991       0.00065071
V        3.16895819       9.25138950       0.28436688       0.30973414       0.10444106      -0.38234872       0.05133055      -0.32845199      -1.05580103
V        3.05071926       6.08443737       0.16357712       0.21114748      -0.14190603       0.18283750       0.95620394      -0.17021140       0.27941257
V        3.11604929       6.25937366       3.14586687       0.24864179      -0.36286768       0.51937467      -0.38399625      -1.59525204       0.09130039
V        0.16479987       6.12592268       3.16286612       0.02726826       0.40408804      -0.41071015      -0.00881974      -0.00714659       0.02540876
V        3.23403955       9.18388081       3.05567098      -0.19989548       0.23965565       0.39695800      -0.76101059       0.55130327       0.81917095
V        0.10304107       9.11348343       3.16499352       0.18811493      -0.03344905      -0.22755072      -0.18562686       0.61590379      -0.21816431
V        0.08531318       6.01959562      -0.00122844       0.39416593       0.51259765       0.86201062      -0.04874853       0.71030211       1.06888747
V        0.16647160       6.12331247       6.15008402      -0.04190235      -0.08556814      -0.30348755      -0.03355824       0.01375678       0.00047508
V        3.07857394       6.11518669       6.14569092       0.20860918      -0.05229005       0.17437783       0.00857028       0.02660266      -0.00816987
Cr       3.13585162       9.17680931       6.12730980      -0.19956182       0.02006404       0.05763686       0.01386789       0.05226308       0.00529411
V        1.63505721       7.69630718       4.68795300      -0.03611526       0.43978534      -0.11759395       0.04474451       0.17001083       0.07700177
V        1.62114608      10.56906033       4.65437794      -0.14714380       0.03495247       0.16214488      -0.01875843       0.02332357      -0.00253422
Cr       0.09248124       9.10659695       6.18632984       0.35920676       0.03519844      -0.36619116       0.01296175       0.04375954      -0.00486255
V        1.65335321       7.64387608      10.52672768       0.37468230      -0.84800609      -0.05239464       0.07961436       0.01569580       0.00236384
V        1.72547889      10.68313217      10.60633183       0.19461945       0.13702701       0.51475732      -0.04772848      -0.18529849       0.76760834
V        3.30183220       9.19776726       9.25356865      -0.60058442       0.52209752      -0.36571525      -0.80167502      -0.00885161      -0.99223578
Cr       1.62986112      10.58365154       7.64041281       0.34446019      -0.21103680      -0.27389820      -0.01608434      -0.00893042      -0.00111986
Cr       0.17117161       9.13582802       9.15470886      -0.42468140      -0.45623039      -0.31589002       0.00863553       0.00528732       0.00681205
V        0.00889409       6.01888180       9.09467983       0.26157478       0.32109079      -0.72278924       0.61825740       0.73597431      -0.57852584
V        1.62771499       7.66885376       7.64065266       0.21425658      -0.29311720      -0.27242643       0.01208042      -0.02181605       0.09153938
Cr       3.01241326       6.19252253       9.07932758       0.13114898      -0.07698032       0.73799726       0.62740672      -0.14671350       0.21948056
V        1.84718561       7.82635021      13.95042229       0.07904385       0.27709667       0.22855053       0.01722158       0.01800056      -0.09549486
V        0.07343389       9.02500916      12.30331802       0.12510576       1.01786707      -0.07278165       0.03730535       1.49419141      -0.62597126
V        1.58080649      10.53736305      13.69956112       0.43598145       0.45394227       0.10056438       0.69402599       0.97854137      -0.14362697
Cr       3.15454626       9.15266705      12.16029835       0.70566422       0.22470573      -0.21984451       0.19406365       0.34532771       0.02277384
V        0.58356380       6.62692547      12.63370609       0.04506623       0.36969481       0.03009417       0.01702470       0.02238838       0.02025890
V        3.20609665       6.22901917      12.19942474       0.39725823      -0.16635280       0.15196626      -0.00510086       0.04981968      -0.06850941
V        7.68675709       1.61529374       1.64993072       0.38612614       0.56528880       0.21656025      -0.00850930      -0.04236059      -0.01183481
V        6.29096603       0.14996779       0.08924760      -0.88431171      -0.58113194       0.15639659      -0.56642902      -0.42103967       0.19140176
V        7.68296385       4.57816362       1.53502464       0.02175996      -0.47104544       0.72155284      -0.09309086       0.24297619       0.41683173
V        6.19465160       3.07679296       3.10038090      -0.21428843       0.57691073      -0.30100857      -0.47607228       0.72223204      -0.05505945
Cr       4.70049667       4.50537443       1.54596984      -0.17319122       0.54314502       0.39128033      -0.26594326       0.47919473       0.51566046
V        4.68864012       1.58038461       1.64383435      -0.37853052       0.23090911      -0.15344603       0.01479576      -0.06062935      -0.00529909
Cr       6.18770742       0.08659419       3.25026894       0.22981768      -0.16057531      -0.49639897      -0.18629281      -0.02964165      -0.72686672
V        6.17522144       3.02230120       0.14736570      -0.03868783       0.26985406      -0.74226529      -0.33552927       0.48309454      -0.29684362
V        7.70350266       1.76378632       4.71787930       0.22401344      -0.64964792       0.14370252      -0.66955584      -0.80541253      -0.22552180
Cr       6.11230183       3.14531064       6.08134222       0.18916830       0.20292950      -0.03475224       0.04283858      -0.03130009       0.01066985
V        7.59915638       4.76044512       4.58143377       0.17616632      -0.40628320       0.36241230       0.18396440      -0.67054641       0.50339931
V        4.58870506       4.66749573       4.63307571       0.23974770      -0.01977110      -0.36023129       0.94472289      -0.19345938       0.08170950
V        4.71419668       1.62793863       4.63672924      -0.47069947      -0.08962739      -0.23536131       0.02035069      -0.00414722       0.02407088
Cr       6.12903214       0.14438674       6.12921572      -0.02249125      -0.28372874      -0.16885494      -0.00249815      -0.07381926      -0.08006875
V        6.15932322       0.02424409       9.21419334      -0.20067602       0.26033203      -0.31201050       0.01179547       0.01575167       0.07244445
V        4.59780025       4.76261091      10.79113197      -0.70661699      -0.00015184      -0.85645687      -0.27669656      -0.48560518      -1.00536251
V        7.62084532       1.55673361       7.56763124       1.16094605      -0.03019936      -0.15976805      -0.03753349       0.05796207      -0.02827274
V        7.62772989       1.75556040      10.61754608      -0.06716669      -0.45099652      -0.02603820       0.74235904      -1.40829086       0.62524748
V        5.91634035       2.85408115       9.05121422      -0.34720181       0.45736300       0.13315015       0.34014589       1.18428612      -0.45489454
Cr       7.14230680       4.25158691      10.21000099       0.43118762      -0.37569719       0.41132473       0.02923343       0.03598308      -0.02664545
V        4.73627901       1.57896113      10.71417904      -0.55886785       0.05101520       0.06849468      -1.15724993      -0.23106095       0.47462735
V        7.55865526       4.59551382       7.51004744       0.33912771      -0.10549721      -0.31808309       0.01303738       0.04254632       0.04996789
V        4.61855078       4.67926264       7.60941076       0.07568992      -0.63458670      -0.42083452       0.04459884      -0.03762474      -0.12991904
Cr       8.41923523       5.42683983      11.43292427      -0.60199168      -0.78846703      -0.03709646      -0.00351949      -0.73879695      -0.41410518
Cr       6.18082523       0.08541279      12.14842415      -0.11559591       0.58186782      -0.11723473      -0.01844546       0.02398727      -0.02427836
V        7.71616364       1.64153659      13.64267731      -0.08497016       0.48898807      -0.23145881      -0.02187361      -0.01413303      -0.06503202
V        4.61291027       4.60502911      13.71077251       0.19673503       0.02069819       0.45055840       0.02196111       0.01202199      -0.00950887
V        4.62214899       1.60665858      13.61357594       0.23184581      -0.12327891       0.14271754       0.06112867       0.00616565      -0.01581363
V        7.68563032       4.57989025      13.69676781      -0.13233864       0.38334763       0.75061219      -0.05771748      -0.01737431       0.03580084
V        6.17821598       3.15137124      12.20950794      -0.29975177      -0.50467037       0.23487786      -0.02323440       0.00648051       0.00532851
V        4.55704689       7.51902342       1.81727922       0.26681468       0.26167138      -1.09056485       1.00301170       0.73369741      -1.60721099
V        6.14090538       6.10257101       0.08533659       0.17081276       0.53434300      -0.08044325      -0.02265861      -0.00540252       0.04709856
V        7.73469543       7.56432724       1.57987094      -0.00891712       0.49538828      -0.30624080      -0.39316243       0.66580695       0.15045026
V        6.25615644       9.28813457       0.02083313      -0.00240219      -0.42550615       0.76249500      -0.47335476      -0.74795997       0.78151196
Cr       7.67281771      10.69837093       1.66062987       0.01775890      -0.34186231      -0.50847438       0.03619449      -0.00899721       0.02582487
V        6.18075991       9.23262024       3.10732651      -0.19499223       0.25574014       0.29541568       0.00229742      -0.00671888       0.01734538
V        4.72254801      10.73910618       1.60681701      -0.42287666      -0.43901344      -0.28892879      -0.03111722      -0.01101330      -0.04288646
V        6.28524303       6.25706911       3.11252403      -0.51499569      -0.53190903       0.14570733      -0.88200474      -0.76667422      -0.22246674
V        7.58369398      10.66594696       4.69923115      -0.21430593       0.16507638      -0.26590667       0.01778619       0.02012782       0.01986778
Cr       4.61645031      10.82700920       4.57661581       0.43461892      -0.53964268      -0.12099408       0.38739771      -0.81129968       0.29435319
Cr       6.09543991       9.16160202       6.15054655      -0.29900133      -0.06040721      -0.10025262       0.00102782      -0.00629825       0.00524529
V        4.49569988       7.64911938       4.49273062       0.51856850      -0.36677631       0.07427142       1.21675432       0.50431794       1.69471490
V        7.66891241       7.69978857       4.65640020       0.04453164      -0.41001946       0.28375663      -0.02002186      -0.06672256       0.05220263
Cr       6.32775211       6.12114429       6.11643410      -0.73653922       0.59058581      -0.35664615      -1.35312581       0.53597313      -0.08442333
V        7.69730520       7.76828194      10.64449024      -0.43892705       0.10152776      -0.19237785       0.00939432      -0.05536785      -0.00770061
V        6.19477272       9.19209003       9.12657642      -0.09491291      -0.17139175       0.43971294      -0.01769080      -0.01063557      -0.03805207
Cr       7.69403172      10.61103058      10.87628174      -0.29148120      -0.42632953      -0.33857956      -0.36157173       0.31863654      -0.99950475
V        7.60645247      10.70759106       7.63831949       0.79687644      -0.17898123       0.26919892      -0.01485886      -1.11499822      -0.11060548
V        4.75695419       7.75219011      10.60607624      -0.26342258       0.05103057       0.37955954      -0.60893023      -0.31991062       0.51225376
V        6.15259409       6.28602839       9.04707527       0.27124571       0.66345542       0.11605863       0.00074698      -0.05300176      -0.00809138
Cr       4.72144032      10.60810947      10.75535011      -0.42866492       0.27993713      -0.04132571      -0.10390973       0.62975001       0.01607810
V        4.64989328      10.66464329       7.58021879       0.06476353      -0.10223770       0.25966376       0.03837505      -0.08164632      -0.07529347
Cr       4.69090414       7.70925283       7.54615688      -0.12987459      -0.65617537      -0.10831778       0.03916645       0.01972998      -0.03120057
Cr       7.64685726       7.67105389       7.58497286      -0.32780682       0.27829326       0.67451795      -0.01609211      -0.01784437       0.02601631
V        6.12500763       6.18720913      12.19902992      -0.16846634      -0.21079111      -0.61238153       0.04211073       0.01757587      -0.01456524
V        4.67876482       7.73772621      13.68875790      -0.00919711      -0.55296009       0.20732502       0.00229098       0.02848544      -0.04191492
V        7.65193510      10.70149517      13.67931080       0.22093420      -0.16466507       0.01312746       0.00039978       0.00094970      -0.06803454
Cr       6.16844082       9.21802807      12.14076042      -0.01895721      -0.43729018       0.52813850       0.02671213      -0.00383914       0.01409922
Cr       7.51018476       7.57095003      13.67652225      -0.04106484       0.52607491      -0.07710788       0.24790847       0.46744570       0.11062666
V        4.65299654      10.71832657      13.64368534       0.12559811      -0.02796253      -0.23631542      -0.01541682       0.03399461      -0.00996969
121
Lattice="9.04215026885 0.0 0.0 0.0 12.0474946843 0.0 0.0 0.0 15.109870339" Properties=species:S:1:pos:R:3:force:R:3:forces:R:3 config_type=sia_aa parent_id=99999999 generation=9 step=55 variance=0.8156483769416809 loss=0.8156483769416809 energy=-1089.8130572599923 pbc="T T T"
Cr       1.57199574       1.64536762       1.55725944       0.12336864      -0.55775086       0.26652868       0.59607506       0.11027049      -0.00179142
V        0.20140746       3.18414354       3.11563897      -0.30471008       0.36888619      -0.26157671       0.03830495       0.00351203       0.01120024
V        3.09651566       3.08923817       0.11278392      -0.14483782       0.42276353       0.19493684      -0.02441836      -0.02278511      -0.02667098
V        1.62150800       4.62954283       1.67056000       0.01524858      -0.46384834      -0.57507944       0.21703397      -0.12206787      -0.26230991
V        3.17640424       3.10702085       3.18720245      -0.08509405       0.23608282      -0.31136076      -0.16502385       0.28832835      -0.79251593
V        0.09787589       3.12866712       0.08529627       0.28828765      -0.55882773      -0.26871112       0.80434054      -0.48112059      -0.04508179
V        3.09121871       0.08273114       3.05037856       0.37805461       0.63142304       0.02508166       0.40858635       0.43176317       0.38214707
V        0.14195386       0.25847957       3.18041658       0.15998867      -0.27372486      -0.29410120      -0.17234677      -0.85977602      -0.58603454
V        3.11202788       0.18310782       0.07376331      -0.35674453      -0.13707954      -0.19979723      -0.24853735      -0.00407177      -0.09169041
V        0.21561575       0.23094857       0.10617404       0.39279499      -0.14148923       0.51735942      -0.36336809      -0.45802268       0.11840975
V        2.95357203       0.08329400       6.09927130       0.13511636       0.32327942       0.30897587       1.26797688      -0.09910056       0.18061426
V        0.18387610       3.21782136       6.13284969      -0.38956597      -0.09577405      -0.11714668      -0.06162433       0.04591097       0.01044999
V        3.07290936       3.07563615       6.11311722      -0.22865876       0.48156623       0.44052387      -0.03097198       0.90687513       0.11773071
V        1.62869418       1.63773143       4.62292957       0.11349473      -0.20055457      -0.22876322      -0.00777670       0.01028400      -0.05801384
Cr       1.66454697       4.66151667       4.64073372      -0.18164018      -0.13909514      -0.05803332      -0.01402231      -0.02387130       0.00642558
V        0.16711579      -0.09663771       6.19407511      -0.50040781       0.98748333      -0.12993435      -0.45110366       1.13703299      -0.28201771
V        1.66744030       1.68061590      10.70707512       0.09284277       0.09780789      -0.04371548       0.00920360      -0.01559361      -0.04610431
V        1.71702516       4.66575050      10.71652412       0.24891965      -0.13255286      -0.27944305       0.00646813      -0.02197639       0.00476794
V        3.08948421       3.19058418       9.12364006      -0.24226432       0.20586085       0.21024379      -0.00369914      -0.01218915      -0.01747367
V        0.12105228      -0.01901440       9.06005669      -0.24410837       0.80602365       0.36256282       0.13316789       0.57098114       0.81293476
Cr       1.59503543       4.62930584       7.62135935       0.22888302       0.12901640       0.34742727      -0.00157514      -0.03220382       0.02354909
V        3.10360479       0.21198511       9.05972767       0.21686370      -0.44867982       0.95057070       0.21022499      -0.84460366       0.62493867
V        0.14053638       3.18701315       9.13464928       0.16815693      -0.09169343       0.01600119       0.04432295       0.01229131       0.02334405
V        1.57178295       1.61282194       7.64662266      -0.07467103       0.04581711      -0.30137985       0.00740028       0.01752464       0.00393626
Cr       1.65257680       1.66445506      13.60479259       0.21551379       0.48192373       0.26571851       0.05236147      -0.00160364       0.02380922
Cr       0.18264909       3.06718755      12.17728996       0.28768070       0.04952769       0.07265712      -0.02640852      -0.09321418      -0.00056907
V        1.65164769       4.67981911      13.69099903      -0.07634035      -0.58774094      -0.14681849      -0.07781577      -1.08970451      -0.35307932
V        0.18497482       0.11594564      12.18687153      -0.31214203      -0.21112271       0.16380953      -0.01036111      -0.00104941       0.00616633
Cr       3.19996119       3.23691201      12.10082150       0.15023462      -0.36455990       0.02632671      -0.49126145      -0.62074053       0.70807111
V        4.62814617       1.57197499       7.55116272      -0.13825882       0.06305176      -0.06047647       0.02769061       0.00752680      -0.02896349
Cr       3.18268609       0.16425976      12.14935398       0.13594777       0.06708415       0.01240439      -0.00222617      -0.01761344       0.01211777
V        1.59302592       7.63499546       1.68035483      -0.31573477      -0.43787051      -0.11670711      -0.01595076       0.00094656      -0.02834823
V        0.02301218       9.16987896       0.18171868      -0.41727118       0.08700563       0.07074955       0.02240901      -0.03064175       0.04137741
V        1.59686756      10.70863438       1.65286660       0.12451573      -0.14523481       0.18908651      -0.00758198       0.02468207      -0.01807548
V        3.15956759       9.26446056       0.28771544       0.30973414       0.10444106      -0.38234872       0.10685742      -0.45205900      -1.06198657
V        3.03395963       6.07947874       0.16631955       0.21114748      -0.14190603       0.18283750       1.03772533      -0.13546380       0.24224035
V        3.11777973       6.26500893       3.14742899       0.24864179      -0.36286768       0.51937467      -0.46134216      -1.70957899       0.02742774
V        0.16036880       6.12535048       3.16843939       0.02726826       0.40408804      -0.41071015       0.03421765      -0.00913231      -0.00204001
V        3.24753690       9.19975281       3.05111432      -0.19989548       0.23965565       0.39695800      -0.85484838       0.45443532       0.84782898
V        0.09273177       9.11096096       3.15293336       0.18811493      -0.03344905      -0.22755072      -0.12066817       0.63993859      -0.16139516
V        0.08426797       6.01907444      -0.01163489       0.39416593       0.51259765       0.86201062      -0.05546680       0.70541251       1.12670684
V        0.16300716       6.12658501       6.14623356      -0.04190235      -0.08556814      -0.30348755      -0.00741770      -0.00046417       0.00726589
V        3.07533956       6.11904573       6.14399433       0.20860918      -0.05229005       0.17437783      -0.00091943       0.00983465       0.03248648
Cr       3.14253473       9.19816017       6.13858414      -0.19956182       0.02006404       0.05763686      -0.02940915      -0.06424409      -0.02833286
V        1.64323854       7.72624397       4.70658875      -0.03611526       0.43978534      -0.11759395      -0.01427341       0.00080607      -0.03547621
V        1.61337996      10.57250595       4.64805889      -0.14714380       0.03495247       0.16214488       0.01505720       0.03306419      -0.00391498
Cr       0.09583299       9.10692310       6.18548393       0.35920676       0.03519844      -0.36619116      -0.01467827       0.04542972       0.02694271
V        1.65601742       7.63369274      10.53036404       0.37468230      -0.84800609      -0.05239464       0.08280897       0.07005538      -0.04362133
V        1.72384095      10.66203022      10.60126972       0.19461945       0.13702701       0.51475732      -0.04092690      -0.06841104       0.77087986
V        3.30407858       9.20052719       9.22788525      -0.60058442       0.52209752      -0.36571525      -0.81383264      -0.07796489      -0.81570572
Cr       1.63007438      10.58014679       7.64482689       0.34446019      -0.21103680      -0.27389820      -0.01958211       0.01025475      -0.03685515
Cr       0.16861978       9.12469387       9.16622829      -0.42468140      -0.45623039      -0.31589002       0.01795237       0.03958526      -0.04069613
V       -0.00573016       6.00444078       9.07762718       0.26157478       0.32109079      -0.72278924       0.71124816       0.80787992      -0.48036474
V        1.62160587       7.65975189       7.65752840       0.21425658      -0.29311720      -0.27242643       0.03439901       0.02105379      -0.00031451
Cr       3.02298284       6.19246912       9.06935120       0.13114898      -0.07698032       0.73799726       0.55739725      -0.15756588       0.28070441
V        1.86349177       7.83433580      13.93888664       0.07904385       0.27709667       0.22855053      -0.03039939      -0.01480937      -0.06461157
V        0.07188600       9.03424072      12.30347633       0.12510576       1.01786707      -0.07278165       0.05997139       1.36802626      -0.65556896
V        1.56111372      10.50323296      13.70893097       0.43598145       0.45394227       0.10056438       0.77155817       1.21031022      -0.19797397
Cr       3.20097995       9.17708588      12.14884853       0.70566422       0.22470573      -0.21984451      -0.00140282       0.24577937       0.03050308
V        0.58903611       6.62873602      12.63578033       0.04506623       0.36969481       0.03009417      -0.06567217       0.02114948       0.02349601
V        3.20469689       6.23097610      12.19893646       0.39725823      -0.16635280       0.15196626       0.02043546       0.02628770      -0.06875864
V        7.68375492       1.61426413       1.64770055       0.38612614       0.56528880       0.21656025      -0.00294623      -0.00859427       0.01196841
V        6.28681707       0.14084184       0.09868854      -0.88431171      -0.58113194       0.15639659      -0.53421694      -0.37452531       0.13346565
V        7.69212723       4.58078337       1.54088938       0.02175996      -0.47104544       0.72155284      -0.15471749       0.21769015       0.37379321
V        6.18715620       3.08110261       3.10016227      -0.21428843       0.57691073      -0.30100857      -0.42268968       0.70861071      -0.07310738
Cr       4.71119595       4.51987886       1.54259372      -0.17319122       0.54314502       0.39128033      -0.32184863       0.40462971       0.54042006
V        4.68505621       1.58184481       1.64125395      -0.37853052       0.23090911      -0.15344603       0.02502198      -0.06852158      -0.00323807
Cr       6.20012951       0.08844150       3.25073457       0.22981768      -0.16057531      -0.49639897      -0.27388155      -0.03783257      -0.76177120
V        6.17131233       3.02040100       0.13826364      -0.03868783       0.26985406      -0.74226529      -0.29768062       0.49393746      -0.22068444
V        7.70780706       1.76714325       4.71711063       0.22401344      -0.64964792       0.14370252      -0.69579351      -0.83028746      -0.23478918
Cr       6.11698246       3.13841724       6.07988214       0.18916830       0.20292950      -0.03475224       0.03483474       0.00904425       0.02732308
V        7.59397888       4.75199318       4.58009386       0.17616632      -0.40628320       0.36241230       0.22259283      -0.58858156       0.51290065
V        4.58007622       4.66592646       4.64370012       0.23974770      -0.01977110      -0.36023129       0.96918571      -0.18178318      -0.01486385
V        4.71805477       1.62885082       4.64006853      -0.47069947      -0.08962739      -0.23536131      -0.01902578       0.00338693      -0.01820777
Cr       6.13209391       0.15181147       6.12181807      -0.02249125      -0.28372874      -0.16885494      -0.01578602      -0.15909290      -0.00988810
V        6.15724611       0.03215511       9.21118164      -0.20067602       0.26033203      -0.31201050       0.02549682      -0.09116328       0.06423276
V        4.59711313       4.76769495      10.80017853      -0.70661699      -0.00015184      -0.85645687      -0.25760972      -0.54939008      -1.07163644
V        7.62328863       1.55632675       7.56826067       1.16094605      -0.03019936      -0.15976805      -0.04937790       0.04728905      -0.02906078
V        7.61132431       1.75919378      10.61543560      -0.06716669      -0.45099652      -0.02603820       0.85164857      -1.43724477       0.63696194
V        5.91250134       2.85233712       9.05413055      -0.34720181       0.45736300       0.13315015       0.31750834       1.21639371      -0.45847631
Cr       7.13940668       4.25421953      10.20257187       0.43118762      -0.37569719       0.41132473       0.03835019       0.04161625       0.00604027
V        4.72615051       1.55268097      10.71532822      -0.55886785       0.05101520       0.06849468      -1.10725570      -0.00378294       0.44958803
V        7.56439877       4.59920835       7.51476288       0.33912771      -0.10549721      -0.31808309      -0.03162019      -0.00220659      -0.04060277
V        4.63198423       4.67764425       7.58182716       0.07568992      -0.63458670      -0.42083452      -0.00983780      -0.04275864      -0.00027419
Cr       8.41415596       5.43727303      11.42577076      -0.60199168      -0.78846703      -0.03709646       0.04894493      -0.77741259      -0.37295553
Cr       6.17116261       0.09067808      12.14686680      -0.11559591       0.58186782      -0.11723473       0.05542095       0.00200263       0.01944019
V        7.71352816       1.64066160      13.63579655      -0.08497016       0.48898807      -0.23145881       0.00870589      -0.01080433      -0.01190352
V        4.61334419       4.60753679      13.71206379       0.19673503       0.02069819       0.45055840       0.00852537      -0.01251914       0.00243402
V        4.62871122       1.60660756      13.61787701       0.23184581      -0.12327891       0.14271754       0.01970868       0.00922656      -0.03489434
V        7.68215847       4.57940245      13.70021248      -0.13233864       0.38334763       0.75061219      -0.03857289      -0.02176718       0.02002678
V        6.17906094       3.14937639      12.20811844      -0.29975177      -0.50467037       0.23487786      -0.04309075       0.01899988       0.00773612
V        4.55830002       7.52414465       1.81568980       0.26681468       0.26167138      -1.09056485       1.02370536       0.72522849      -1.65398955
V        6.13578987       6.10153246       0.09580217       0.17081276       0.53434300      -0.08044325       0.01121577       0.00051814      -0.02182252
V        7.74228621       7.57066250       1.55897021      -0.00891712       0.49538828      -0.30624080      -0.44936019       0.63523775       0.26600716
V        6.25210857       9.27252865       0.01120295      -0.00240219      -0.42550615       0.76249500      -0.46614406      -0.66064167       0.81552190
Cr       7.66745710      10.70001793       1.66266000       0.01775890      -0.34186231      -0.50847438       0.05551905      -0.01628083       0.01024088
V        6.18451738       9.23340130       3.11409354      -0.19499223       0.25574014       0.29541568      -0.03276774      -0.00119447      -0.04281054
V        4.71674109      10.74015903       1.59039283      -0.42287666      -0.43901344      -0.28892879       0.02299741       0.00054304       0.06183917
V        6.28938246       6.26534796       3.12032318      -0.51499569      -0.53190903       0.14570733      -0.87598848      -0.79871547      -0.30513030
V        7.58452845      10.66795349       4.69929743      -0.21430593       0.16507638      -0.26590667       0.02068032       0.01466848       0.00057925
Cr       4.60636473      10.82311630       4.58783960       0.43461892      -0.53964268      -0.12099408       0.44994187      -0.77263021       0.21285395
Cr       6.10534143       9.16213608       6.15257883      -0.29900133      -0.06040721      -0.10025262      -0.05471040      -0.00617471      -0.00292085
V        4.46924543       7.62148523       4.47007227       0.51856850      -0.36677631       0.07427142       1.40666556       0.70737451       1.89127910
V        7.67278433       7.70219231       4.65281725       0.04453164      -0.41001946       0.28375663      -0.02612531      -0.07914260       0.06680602
Cr       6.32931376       6.13111544       6.10933590      -0.73653922       0.59058581      -0.35664615      -1.36229229       0.45177370      -0.05211103
V        7.69934368       7.76435137      10.64300060      -0.43892705       0.10152776      -0.19237785       0.00930713      -0.04003710      -0.01227118
V        6.19474125       9.19191456       9.13021564      -0.09491291      -0.17139175       0.43971294      -0.02242345      -0.02513748      -0.04149042
Cr       7.67881727      10.60214806      10.88532925      -0.29148120      -0.42632953      -0.33857956      -0.26817226       0.37671590      -1.05249000
V        7.60604906      10.69698429       7.63544655       0.79687644      -0.17898123       0.26919892      -0.00393961      -1.04710937      -0.07858075
V        4.75439215       7.74124479      10.59772587      -0.26342258       0.05103057       0.37955954      -0.59133905      -0.18117237       0.53464413
V        6.14381886       6.28170633       9.04300308       0.27124571       0.66345542       0.11605863       0.00749123      -0.04371663       0.00153442
Cr       4.72545862      10.63121319      10.78715420      -0.42866492       0.27993713      -0.04132571      -0.16873294       0.44649085      -0.19632363
V        4.65326881      10.66431046       7.58470917       0.06476353      -0.10223770       0.25966376       0.03103975      -0.03380872      -0.10896842
Cr       4.68537235       7.69837046       7.56154633      -0.12987459      -0.65617537      -0.10831778       0.05033151       0.07865432      -0.08999491
Cr       7.64442158       7.66973639       7.58286953      -0.32780682       0.27829326       0.67451795      -0.00817611      -0.02110050       0.03543295
V        6.12175035       6.17625189      12.19737053      -0.16846634      -0.21079111      -0.61238153       0.05511728       0.09693190       0.00289455
V        4.68057060       7.73563957      13.69011211      -0.00919711      -0.55296009       0.20732502      -0.01062862       0.03149733      -0.06438307
V        7.65064478      10.69968319      13.67748642       0.22093420      -0.16466507       0.01312746       0.01430107       0.04884966      -0.01949443
Cr       6.17263603       9.21671963      12.13843536      -0.01895721      -0.43729018       0.52813850       0.02621150      -0.01453941       0.02411688
Cr       7.50203562       7.57769823      13.66709328      -0.04106484       0.52607491      -0.07710788       0.26998240       0.40859041       0.12625048
V        4.65792274      10.72295952      13.64256287       0.12559811      -0.02796253      -0.23631542      -0.05198160       0.00817882       0.05068680
121
Lattice="9.04215026885 0.0 0.0 0.0 12.0474946843 0.0 0.0 0.0 15.109870339" Properties=species:S:1:pos:R:3:force:R:3:forces:R:3 config_type=sia_aa parent_id=99999999 generation=9 step=66 variance=0.8417963981628418 loss=0.8417963981628418 energy=-1089.6952510913816 pbc="T T T"
Cr       1.56911099       1.65383041       1.56561863       0.12336864      -0.55775086       0.26652868       0.62821019       0.05545943      -0.02815390
V        0.20638114       3.18723488       3.11516142      -0.30471008       0.36888619      -0.26157671       0.02200141      -0.00062628       0.01078749
V        3.10163641       3.08677793       0.10949217      -0.14483782       0.42276353       0.19493684      -0.03018396      -0.01953721      -0.01213396
V        1.62932479       4.61192179       1.64540970       0.01524858      -0.46384834      -0.57507944       0.12331244       0.02223418      -0.05849841
V        3.16985536       3.11195493       3.19218826      -0.08509405       0.23608282      -0.31136076      -0.09209192       0.25288975      -0.81687248
V        0.09558453       3.13385463       0.09186690       0.28828765      -0.55882773      -0.26871112       0.78727007      -0.54505748      -0.09928052
V        3.10289288       0.08706236       3.05487800       0.37805461       0.63142304       0.02508166       0.32394129       0.42460912       0.38277417
V        0.13738234       0.25919831       3.17939591       0.15998867      -0.27372486      -0.29410120      -0.13182965      -0.86708611      -0.58038372
V        3.07447553       0.18819880       0.06804294      -0.35674453      -0.13707954      -0.19979723      -0.01480152      -0.06299613      -0.03374333
V        0.24221525       0.23534080       0.11167579       0.39279499      -0.14148923       0.51735942      -0.62205863      -0.49933523       0.08426416
V        2.95174551       0.08461870       6.09552240       0.13511636       0.32327942       0.30897587       1.28940725      -0.08468780       0.20667504
V        0.16429114       3.22346592       6.13749599      -0.38956597      -0.09577405      -0.11714668       0.11462958      -0.02533641      -0.02878903
V        3.08622169       3.07804108       6.11325026      -0.22865876       0.48156623       0.44052387      -0.15639290       0.89931387       0.11194456
V        1.63055623       1.64323771       4.62223864       0.11349473      -0.20055457      -0.22876322      -0.00656494       0.00202603      -0.04219691
Cr       1.66032469       4.65554619       4.64216614      -0.18164018      -0.13909514      -0.05803332       0.00990455       0.02086399       0.00749704
V        0.17728338      -0.10052752       6.18788290      -0.50040781       0.98748333      -0.12993435      -0.52917910       1.14240432      -0.20714502
V        1.67403650       1.68183863      10.70126438       0.09284277       0.09780789      -0.04371548      -0.01899426      -0.01971256       0.00636405
V        1.72641730       4.67068529      10.71746063       0.24891965      -0.13255286      -0.27944305      -0.03753261      -0.06547727       0.01352191
V        3.08897114       3.18243051       9.12726974      -0.24226432       0.20586085       0.21024379      -0.00265780       0.04106371      -0.03198394
V        0.12284447      -0.00647084       9.07058334      -0.24410837       0.80602365       0.36256282       0.14031383       0.49710381       0.73102015
Cr       1.59485054       4.62901831       7.62430811       0.22888302       0.12901640       0.34742727      -0.00575067      -0.03001980       0.01282254
V        3.11359739       0.22606753       9.05624104       0.21686370      -0.44867982       0.95057070       0.14822465      -0.93657106       0.64340985
V        0.14229017       3.19036031       9.13328743       0.16815693      -0.09169343       0.01600119       0.05518639       0.00767959       0.03035605
V        1.57071328       1.61629140       7.64673805      -0.07467103       0.04581711      -0.30137985       0.01580510       0.00972994      -0.01380430
Cr       1.65731084       1.66680264      13.60494614       0.21551379       0.48192373       0.26571851       0.00351264       0.00253199       0.00806203
Cr       0.18197042       3.06308675      12.17969131       0.28768070       0.04952769       0.07265712      -0.01167587      -0.06829885      -0.00057750
V        1.64285314       4.67283726      13.70113277      -0.07634035      -0.58774094      -0.14681849      -0.02082931      -1.03397012      -0.44771069
V        0.18005416       0.11071655      12.18603706      -0.31214203      -0.21112271       0.16380953       0.02367986       0.03002665      -0.00852408
Cr       3.22547746       3.22411227      12.10473919       0.15023462      -0.36455990       0.02632671      -0.64663815      -0.55504853       0.67533654
V        4.63000822       1.57202315       7.54885674      -0.13825882       0.06305176      -0.06047647       0.05795228       0.01806813      -0.01969247
Cr       3.18229103       0.15974614      12.15077114       0.13594777       0.06708415       0.01240439       0.00955986       0.01460472      -0.03332530
V        1.59351099       7.63659525       1.68141150      -0.31573477      -0.43787051      -0.11670711      -0.02156702       0.00089118      -0.02386226
V        0.02610058       9.15461731       0.18189831      -0.41727118       0.08700563       0.07074955       0.01179036       0.02826125       0.03809827
V        1.59556532      10.70437527       1.65672100       0.12451573      -0.14523481       0.18908651      -0.00433628       0.05156941      -0.00507827
V        3.16559458       9.26853085       0.29294792       0.30973414       0.10444106      -0.38234872       0.06292535      -0.49936479      -1.07568753
V        3.01423359       6.06785011       0.18149415       0.21114748      -0.14190603       0.18283750       1.15429759      -0.07113220       0.15357707
V        3.11544251       6.27243948       3.15737844       0.24864179      -0.36286768       0.51937467      -0.51808327      -1.80206037      -0.04858005
V        0.16311629       6.12529516       3.16824102       0.02726826       0.40408804      -0.41071015       0.02165326      -0.02431804      -0.02569722
V        3.25736356       9.21759892       3.05395842      -0.19989548       0.23965565       0.39695800      -0.94622087       0.34889841       0.84413588
V        0.08339685       9.11237621       3.15307379       0.18811493      -0.03344905      -0.22755072      -0.07003641       0.64358163      -0.17905709
V        0.07877659       6.02532387      -0.01581828       0.39416593       0.51259765       0.86201062      -0.05075537       0.64201504       1.18196201
V        0.16383329       6.12478924       6.14503956      -0.04190235      -0.08556814      -0.30348755       0.00418384       0.01541176       0.00417656
V        3.06976867       6.11541796       6.14833832       0.20860918      -0.05229005       0.17437783       0.03519368       0.01089948       0.00677004
Cr       3.13959384       9.19576645       6.13983536      -0.19956182       0.02006404       0.05763686      -0.02843924      -0.05110894      -0.01843964
V        1.64239049       7.72699499       4.70396137      -0.03611526       0.43978534      -0.11759395      -0.02966455       0.01010012      -0.01477303
V        1.61184776      10.57218075       4.64800358      -0.14714380       0.03495247       0.16214488       0.02360998       0.04594591      -0.01476337
Cr       0.09690173       9.10590172       6.18386364       0.35920676       0.03519844      -0.36619116      -0.02679742       0.04662400       0.02673179
V        1.65443873       7.62790489      10.53146744       0.37468230      -0.84800609      -0.05239464       0.10223656       0.08732783      -0.04385035
V        1.73032641      10.64410496      10.59600067       0.19461945       0.13702701       0.51475732      -0.10388654       0.07343383       0.81372160
V        3.30492687       9.20241261       9.24250889      -0.60058442       0.52209752      -0.36571525      -0.75263357      -0.10904227      -0.89113587
Cr       1.63095832      10.57724762       7.64480639       0.34446019      -0.21103680      -0.27389820      -0.02478565       0.02725938      -0.03058190
Cr       0.17242093       9.11954308       9.15997124      -0.42468140      -0.45623039      -0.31589002       0.01126516       0.05054913      -0.01267724
V       -0.00929889       5.99536610       9.06608105       0.26157478       0.32109079      -0.72278924       0.74568057       0.86260623      -0.40420017
V        1.63397229       7.66427040       7.65276575       0.21425658      -0.29311720      -0.27242643      -0.02113778      -0.02202520       0.04919364
Cr       3.05494547       6.18981266       9.07211208       0.13114898      -0.07698032       0.73799726       0.37591028      -0.14705279       0.29077399
V        1.86973381       7.82685661      13.93751335       0.07904385       0.27709667       0.22855053       0.00010780       0.01897662      -0.06299354
V        0.07549013       9.03874493      12.31778145       0.12510576       1.01786707      -0.07278165       0.01401625       1.30781007      -0.79097676
V        1.55023038      10.48244762      13.70506191       0.43598145       0.45394227       0.10056438       0.85366940       1.32714427      -0.12849399
Cr       3.21673059       9.21997166      12.15562725       0.70566422       0.22470573      -0.21984451      -0.06613319       0.02326794      -0.00371323
V        0.58412236       6.63185406      12.63872528       0.04506623       0.36969481       0.03009417      -0.04022719      -0.04263466      -0.00535976
V        3.20369124       6.23407459      12.19046974       0.39725823      -0.16635280       0.15196626       0.00403496      -0.00084394       0.03008762
V        7.68047047       1.61947095       1.65231848       0.38612614       0.56528880       0.21656025       0.01110841      -0.04456676      -0.03943495
V        6.28125381       0.13497125       0.09914604      -0.88431171      -0.58113194       0.15639659      -0.46436390      -0.34375975       0.13452791
V        7.69136953       4.57763529       1.55004096       0.02175996      -0.47104544       0.72155284      -0.16264504       0.26707268       0.31365836
V        6.18647575       3.08241940       3.10061336      -0.21428843       0.57691073      -0.30100857      -0.42056617       0.69972777      -0.07385474
Cr       4.70429802       4.52186537       1.55702925      -0.17319122       0.54314502       0.39128033      -0.29358178       0.39643115       0.47436702
V        4.68804598       1.56957483       1.63861299      -0.37853052       0.23090911      -0.15344603       0.00823824       0.02647314       0.00121285
Cr       6.20302677       0.09283278       3.24324393       0.22981768      -0.16057531      -0.49639897      -0.27288976      -0.06664266      -0.70386624
V        6.17003345       3.02225590       0.12510252      -0.03868783       0.26985406      -0.74226529      -0.29695535       0.45580083      -0.11069047
V        7.71810198       1.76871753       4.71385622       0.22401344      -0.64964792       0.14370252      -0.76175201      -0.84754819      -0.21781754
Cr       6.11803484       3.13824344       6.07935476       0.18916830       0.20292950      -0.03475224       0.04178666      -0.00319433       0.01131664
V        7.60137844       4.73823833       4.58270836       0.17616632      -0.40628320       0.36241230       0.16843455      -0.45815897       0.48022473
V        4.58744478       4.67328644       4.63981962       0.23974770      -0.01977110      -0.36023129       0.92149514      -0.20785175       0.02778728
V        4.72131443       1.63004887       4.63906860      -0.47069947      -0.08962739      -0.23536131      -0.00888478       0.00299451      -0.01871190
Cr       6.13732576       0.14658198       6.12561464      -0.02249125      -0.28372874      -0.16885494      -0.04470598      -0.13607922      -0.05166007
V        6.15932798       0.02665533       9.21470833      -0.20067602       0.26033203      -0.31201050       0.00177290      -0.03100812       0.03846112
V        4.59784794       4.76937580      10.80264854      -0.70661699      -0.00015184      -0.85645687      -0.23517303      -0.59346032      -1.08693397
V        7.62253523       1.55129933       7.56687689       1.16094605      -0.03019936      -0.15976805      -0.03710987       0.06766690      -0.02054186
V        7.60399675       1.76782846      10.60675335      -0.06716669      -0.45099652      -0.02603820       0.91778129      -1.49823892       0.69749296
V        5.91800737       2.85854673       9.05258846      -0.34720181       0.45736300       0.13315015       0.25948244       1.17684042      -0.46742162
Cr       7.13929796       4.25393295      10.20400810       0.43118762      -0.37569719       0.41132473       0.05862048       0.06946877       0.01698354
V        4.71790314       1.54795682      10.70948982      -0.55886785       0.05101520       0.06849468      -1.01139820       0.07077220       0.47532743
V        7.55409575       4.60204220       7.51328611       0.33912771      -0.10549721      -0.31808309       0.02299142      -0.03150672      -0.01415774
V        4.62339449       4.67030716       7.58294153       0.07568992      -0.63458670      -0.42083452       0.01478029      -0.01655593       0.00491029
Cr       8.40530396       5.44242001      11.42882824      -0.60199168      -0.78846703      -0.03709646       0.15194505      -0.78180999      -0.40506309
Cr       6.17855501       0.08030146      12.15235615      -0.11559591       0.58186782      -0.11723473       0.00750584       0.06818751      -0.02685298
V        7.71301365       1.64053643      13.63333225      -0.08497016       0.48898807      -0.23145881       0.03547595      -0.01888589       0.00323815
V        4.61546516       4.60910559      13.71470070       0.19673503       0.02069819       0.45055840      -0.01390763      -0.01565129      -0.01269229
V        4.62555599       1.60648441      13.61470413       0.23184581      -0.12327891       0.14271754       0.04113536       0.01253141      -0.01685478
V        7.68232107       4.57493687      13.70114040      -0.13233864       0.38334763       0.75061219      -0.04848656       0.00835491       0.02069302
V        6.17942476       3.14973330      12.20891285      -0.29975177      -0.50467037       0.23487786      -0.05008238       0.00829275       0.00302284
V        4.55731964       7.51656294       1.83081543       0.26681468       0.26167138      -1.09056485       1.02142310       0.78213644      -1.77042651
V        6.13130379       6.10196781       0.09336080       0.17081276       0.53434300      -0.08044325       0.01700902      -0.00046813       0.01157418
V        7.74104023       7.58454132       1.55828273      -0.00891712       0.49538828      -0.30624080      -0.46524176       0.53107959       0.27160892
V        6.25628662       9.25244141       0.00366545      -0.00240219      -0.42550615       0.76249500      -0.52567393      -0.53159505       0.85683382
Cr       7.67103004      10.70093441       1.65998411       0.01775890      -0.34186231      -0.50847438       0.03833001      -0.02197701       0.02556348
V        6.18180752       9.23712063       3.10702562      -0.19499223       0.25574014       0.29541568       0.00907822      -0.01759514       0.02756303
V        4.71764135      10.74106598       1.59577835      -0.42287666      -0.43901344      -0.28892879       0.02557045       0.01935359       0.00509999
V        6.28503084       6.27754259       3.12677121      -0.51499569      -0.53190903       0.14570733      -0.80117363      -0.88381612      -0.30491206
V        7.58363628      10.66983795       4.69919252      -0.21430593       0.16507638      -0.26590667       0.02171341       0.01308539      -0.00480774
Cr       4.60091400      10.81868935       4.59700489       0.43461892      -0.53964268      -0.12099408       0.49336195      -0.73856628       0.17244300
Cr       6.10297632       9.16371059       6.15147543      -0.29900133      -0.06040721      -0.10025262      -0.04573564      -0.01222645       0.01088760
V        4.45431042       7.61987114       4.47216654       0.51856850      -0.36677631       0.07427142       1.50274026       0.75934088       1.95386791
V        7.67555714       7.69730854       4.65119457       0.04453164      -0.41001946       0.28375663      -0.04452216      -0.02524025       0.07205611
Cr       6.34073210       6.13544416       6.11473560      -0.73653922       0.59058581      -0.35664615      -1.42142236       0.43861389      -0.10256010
V        7.69945097       7.76438141      10.63857460      -0.43892705       0.10152776      -0.19237785       0.02326008      -0.01928972       0.00488001
V        6.19109011       9.18667030       9.13352489      -0.09491291      -0.17139175       0.43971294      -0.01610376      -0.01846474      -0.04318021
Cr       7.69374657      10.61666965      10.88575268      -0.29148120      -0.42632953      -0.33857956      -0.35553634       0.28582355      -1.03741968
V        7.60814905      10.70068359       7.64422035       0.79687644      -0.17898123       0.26919892       0.01955283      -1.07098508      -0.12092535
V        4.74918413       7.71467495      10.60857010      -0.26342258       0.05103057       0.37955954      -0.51425046       0.08536088       0.45828074
V        6.13333273       6.26721144       9.04005337       0.27124571       0.66345542       0.11605863       0.04534328       0.03717212       0.02706059
Cr       4.72216368      10.65869045      10.78014660      -0.42866492       0.27993713      -0.04132571      -0.10951152       0.24286596      -0.12298923
V        4.64984035      10.66792393       7.58434248       0.06476353      -0.10223770       0.25966376       0.06135757      -0.06299453      -0.07949685
Cr       4.68508863       7.69788408       7.55705070      -0.12987459      -0.65617537      -0.10831778       0.06013667       0.06991087      -0.03163969
Cr       7.65022802       7.66931343       7.58409834      -0.32780682       0.27829326       0.67451795      -0.01651971      -0.02424034       0.03127696
V        6.12658501       6.18389416      12.19742393      -0.16846634      -0.21079111      -0.61238153      -0.00451311       0.03329051       0.00722513
V        4.67796516       7.74271059      13.68220139      -0.00919711      -0.55296009       0.20732502      -0.01451532      -0.00038698      -0.02320747
V        7.64990234      10.69863319      13.68207645       0.22093420      -0.16466507       0.01312746       0.02049599       0.02730092      -0.01270907
Cr       6.17898512       9.21568108      12.14055824      -0.01895721      -0.43729018       0.52813850      -0.00766795       0.00803418       0.01396959
Cr       7.49682570       7.57268143      13.66222668      -0.04106484       0.52607491      -0.07710788       0.27999085       0.45245969       0.15431361
V        4.64961576      10.73545551      13.65847301       0.12559811      -0.02796253      -0.23631542       0.02137145      -0.07351781      -0.00822806
121
Lattice="9.04215026885 0.0 0.0 0.0 12.0474946843 0.0 0.0 0.0 15.109870339" Properties=species:S:1:pos:R:3:force:R:3:forces:R:3 config_type=sia_aa parent_id=99999999 generation=9 step=77 variance=0.8700101375579834 loss=0.8700101375579834 energy=-1089.6631082798024 pbc="T T T"
Cr       1.56558692       1.65107799       1.58572400       0.12336864      -0.55775086       0.26652868       0.65050262       0.08271914      -0.14080940
V        0.20872366       3.19010282       3.11472535      -0.30471008       0.36888619      -0.26157671       0.01551662      -0.01295218       0.00939766
V        3.09713316       3.08309054       0.10837318      -0.14483782       0.42276353       0.19493684       0.00655724      -0.01979698      -0.00897450
V        1.64562273       4.60951757       1.63792050       0.01524858      -0.46384834      -0.57507944      -0.00211820       0.02905671       0.00655080
V        3.16593719       3.10627437       3.19111085      -0.08509405       0.23608282      -0.31136076      -0.06374122       0.27949825      -0.79223460
V        0.09333707       3.13888621       0.09030756       0.28828765      -0.55882773      -0.26871112       0.78835702      -0.57931507      -0.07145488
V        3.10550570       0.09035265       3.06254172       0.37805461       0.63142304       0.02508166       0.32543114       0.40226015       0.36162812
V        0.13805109       0.26002416       3.18282676       0.15998867      -0.27372486      -0.29410120      -0.13498978      -0.86367476      -0.59900218
V        3.07769608       0.18233201       0.07095605      -0.35674453      -0.13707954      -0.19979723      -0.02447103      -0.03901337      -0.04386621
V        0.24872437       0.23858574       0.11678057       0.39279499      -0.14148923       0.51735942      -0.67963982      -0.50630295       0.07946821
V        2.94686341       0.08769812       6.09159374       0.13511636       0.32327942       0.30897587       1.33737791      -0.11430904       0.25134254
V        0.16733086       3.22354865       6.13572979      -0.38956597      -0.09577405      -0.11714668       0.09329262      -0.03109996      -0.00012260
V        3.07502174       3.07972670       6.11293030      -0.22865876       0.48156623       0.44052387      -0.06127067       0.90098238       0.12219831
V        1.62981832       1.64287698       4.62265015       0.11349473      -0.20055457      -0.22876322      -0.00948485       0.00813658      -0.03926335
Cr       1.66132438       4.65984774       4.64347553      -0.18164018      -0.13909514      -0.05803332      -0.00126461      -0.00631592       0.00135258
V        0.17997131      -0.10270828       6.18010283      -0.50040781       0.98748333      -0.12993435      -0.56342876       1.12933314      -0.10535765
V        1.67426336       1.67895174      10.70372295       0.09284277       0.09780789      -0.04371548      -0.01134454      -0.00786046      -0.00542861
V        1.71699989       4.66426516      10.71844006       0.24891965      -0.13255286      -0.27944305       0.02713901      -0.02330378       0.01266943
V        3.08674288       3.18554878       9.12531471      -0.24226432       0.20586085       0.21024379       0.00120947       0.02094224      -0.01170182
V        0.12616976      -0.00174871       9.08900642      -0.24410837       0.80602365       0.36256282       0.10356271       0.44359565       0.57292807
Cr       1.59283888       4.62772131       7.62245274       0.22888302       0.12901640       0.34742727       0.00669975      -0.03435203       0.02109938
V        3.12157035       0.23349042       9.06287193       0.21686370      -0.44867982       0.95057070       0.10041874      -0.95464802       0.59058571
V        0.14447330       3.18672442       9.13385677       0.16815693      -0.09169343       0.01600119       0.04197010       0.01069399       0.01295644
V        1.57330036       1.61697006       7.64836836      -0.07467103       0.04581711      -0.30137985      -0.00760598      -0.00245111      -0.01266399
Cr       1.65699792       1.66465080      13.61003590       0.21551379       0.48192373       0.26571851      -0.00099669       0.00315049       0.00978360
Cr       0.18662278       3.05263257      12.18267250       0.28768070       0.04952769       0.07265712      -0.03854770      -0.01260610       0.01064685
V        1.64400303       4.67705774      13.70386887      -0.07634035      -0.58774094      -0.14681849      -0.03682647      -1.06503057      -0.46895498
V        0.17995378       0.11190268      12.18831825      -0.31214203      -0.21112271       0.16380953       0.01310928       0.03527899      -0.01053052
Cr       3.24879956       3.23158479      12.10428238       0.15023462      -0.36455990       0.02632671      -0.80457163      -0.59223002       0.69059509
V        4.63491011       1.57526636       7.54608011      -0.13825882       0.06305176      -0.06047647       0.02807009       0.02030264      -0.02748785
Cr       3.18087673       0.15553048      12.14237499       0.13594777       0.06708415       0.01240439       0.01189683       0.02735852      -0.00318823
V        1.59479189       7.63798189       1.67863321      -0.31573477      -0.43787051      -0.11670711      -0.02682690      -0.01526675      -0.01191986
V        0.02576931       9.15065384       0.18452395      -0.41727118       0.08700563       0.07074955       0.00184341       0.03965595       0.00010131
V        1.59491456      10.71042156       1.65821517       0.12451573      -0.14523481       0.18908651       0.01415418       0.02144534       0.01478521
V        3.16592383       9.27174950       0.29916084       0.30973414       0.10444106      -0.38234872       0.05871419      -0.50781834      -1.11249232
V        3.00985456       6.05996466       0.18459707       0.21114748      -0.14190603       0.18283750       1.19010329       0.00549510       0.11867563
V        3.11064434       6.26881790       3.16444731       0.24864179      -0.36286768       0.51937467      -0.46371621      -1.74578035      -0.14050713
V        0.16351277       6.11878729       3.16341758       0.02726826       0.40408804      -0.41071015       0.02126704       0.01424812      -0.00445787
V        3.25967407       9.22318745       3.05874372      -0.19989548       0.23965565       0.39695800      -0.92691725       0.28572613       0.80319965
V        0.08056942       9.11019993       3.14097548       0.18811493      -0.03344905      -0.22755072      -0.06486002       0.66549504      -0.10416075
V        0.07763982       6.02518702      -0.01471603       0.39416593       0.51259765       0.86201062      -0.04584020       0.64263368       1.14878440
V        0.16374920       6.12406206       6.13923216      -0.04190235      -0.08556814      -0.30348755       0.00195123       0.01653047       0.02792142
V        3.06893563       6.11665821       6.15012360       0.20860918      -0.05229005       0.17437783       0.03198018       0.00601795       0.00986295
Cr       3.13421297       9.19461250       6.14429283      -0.19956182       0.02006404       0.05763686      -0.01504717      -0.05549149      -0.02850460
V        1.63890541       7.72956610       4.70121384      -0.03611526       0.43978534      -0.11759395      -0.00932843      -0.00820767       0.01085006
V        1.61191380      10.57135391       4.64810753      -0.14714380       0.03495247       0.16214488       0.01558479       0.04755913      -0.01574486
Cr       0.09097534       9.10559845       6.18961811       0.35920676       0.03519844      -0.36619116       0.00181721       0.04103615      -0.00868047
V        1.67089069       7.63235474      10.52999306       0.37468230      -0.84800609      -0.05239464       0.01808674       0.02075709      -0.02436808
V        1.73186910      10.64414883      10.58897305       0.19461945       0.13702701       0.51475732      -0.12310545       0.08280204       0.85638970
V        3.32163095       9.19889641       9.25575447      -0.60058442       0.52209752      -0.36571525      -0.85574377      -0.07610156      -0.98729271
Cr       1.62787497      10.57785034       7.63950968       0.34446019      -0.21103680      -0.27389820      -0.01038389       0.00332094       0.00870545
Cr       0.17658998       9.12059402       9.16011333      -0.42468140      -0.45623039      -0.31589002       0.00191703       0.03846096      -0.02068917
V       -0.02450878       5.99402857       9.05245686       0.26157478       0.32109079      -0.72278924       0.84879035       0.87352437      -0.32615423
V        1.62446082       7.65810680       7.65768671       0.21425658      -0.29311720      -0.27242643       0.05482692      -0.00071669       0.05072383
Cr       3.07828665       6.17303562       9.09325695       0.13114898      -0.07698032       0.73799726       0.24760902      -0.05322785       0.15785252
V        1.87291932       7.82911348      13.93191528       0.07904385       0.27709667       0.22855053      -0.01835233      -0.02287385      -0.02923992
V        0.08180179       9.04006767      12.31446648       0.12510576       1.01786707      -0.07278165      -0.05019905       1.30058932      -0.78935117
V        1.53233993      10.47749519      13.70995808       0.43598145       0.45394227       0.10056438       0.94963539       1.33726335      -0.12227717
Cr       3.19668007       9.21191788      12.15206623       0.70566422       0.22470573      -0.21984451       0.00857244       0.04874850      -0.01312338
V        0.58095765       6.63165331      12.63658905       0.04506623       0.36969481       0.03009417       0.00445733       0.01193517       0.03132100
V        3.20340180       6.23607492      12.18775463       0.39725823      -0.16635280       0.15196626      -0.01481447      -0.02934477       0.05049138
V        7.67970371       1.61927283       1.64983261       0.38612614       0.56528880       0.21656025       0.00331427      -0.03643500      -0.03028167
V        6.27565575       0.13060033       0.10125528      -0.88431171      -0.58113194       0.15639659      -0.41480583      -0.32066017       0.12323730
V        7.68993425       4.57836771       1.55518115       0.02175996      -0.47104544       0.72155284      -0.16051933       0.25203413       0.27786025
V        6.18392420       3.07755852       3.10209751      -0.21428843       0.57691073      -0.30100857      -0.38718659       0.72883272      -0.08117020
Cr       4.70491934       4.51984978       1.55847275      -0.17319122       0.54314502       0.39128033      -0.30498883       0.39178953       0.46624684
V        4.68767548       1.58003616       1.64072418      -0.37853052       0.23090911      -0.15344603      -0.00387244      -0.06338137      -0.01839948
Cr       6.20351601       0.09317142       3.23672414       0.22981768      -0.16057531      -0.49639897      -0.25892255      -0.07396748      -0.64991730
V        6.15854311       3.02146697       0.11676732      -0.03868783       0.26985406      -0.74226529      -0.20645130       0.46898887      -0.05581120
V        7.72409725       1.77302492       4.71780205       0.22401344      -0.64964792       0.14370252      -0.80628717      -0.88621354      -0.24283755
Cr       6.11958122       3.14027476       6.07845879       0.18916830       0.20292950      -0.03475224       0.03973907      -0.01104902       0.02395126
V        7.60096216       4.72687483       4.59237099       0.17616632      -0.40628320       0.36241230       0.15540457      -0.36397421       0.40489012
V        4.58818245       4.67144251       4.63642454       0.23974770      -0.01977110      -0.36023129       0.89605135      -0.19468278       0.05847301
V        4.72078848       1.62923026       4.63677979      -0.47069947      -0.08962739      -0.23536131      -0.01137009      -0.00085636      -0.00683003
Cr       6.13528395       0.14552088       6.12180424      -0.02249125      -0.28372874      -0.16885494      -0.02833883      -0.15235633      -0.03330158
V        6.15818596       0.02893574       9.20979214      -0.20067602       0.26033203      -0.31201050       0.00882972      -0.04480001       0.03089543
V        4.59192467       4.77169752      10.80332375      -0.70661699      -0.00015184      -0.85645687      -0.16425425      -0.61074466      -1.09234977
V        7.62418842       1.54816830       7.56612825       1.16094605      -0.03019936      -0.15976805      -0.04109009       0.05827261      -0.01089455
V        7.59059954       1.77140129      10.59415817      -0.06716669      -0.45099652      -0.02603820       0.99836624      -1.53582609       0.79278839
V        5.92162609       2.86274719       9.05526733      -0.34720181       0.45736300       0.13315015       0.20943770       1.17230725      -0.47603297
Cr       7.14201164       4.25815058      10.20423794       0.43118762      -0.37569719       0.41132473       0.05510863       0.06240513       0.02329014
V        4.70495033       1.53980124      10.71912384      -0.55886785       0.05101520       0.06849468      -0.88987315       0.20008104       0.37168574
V        7.55492020       4.60061121       7.51001930       0.33912771      -0.10549721      -0.31808309      -0.00104066      -0.02518812      -0.00837884
V        4.62668896       4.67277861       7.58257198       0.07568992      -0.63458670      -0.42083452      -0.00682570      -0.02919044       0.00475489
Cr       8.41071320       5.44411612      11.42776203      -0.60199168      -0.78846703      -0.03709646       0.08642919      -0.79500359      -0.40545067
Cr       6.17714596       0.08371467      12.15303612      -0.11559591       0.58186782      -0.11723473       0.00719140       0.04693262      -0.03770909
V        7.71623182       1.63901138      13.63375759      -0.08497016       0.48898807      -0.23145881       0.00348176      -0.00518392       0.00731920
V        4.61072922       4.60730267      13.71470356       0.19673503       0.02069819       0.45055840       0.02021701       0.00839038       0.00317945
V        4.63055658       1.60435212      13.61711216       0.23184581      -0.12327891       0.14271754       0.01065911       0.00347722      -0.00905006
V        7.67978382       4.57493591      13.70092201      -0.13233864       0.38334763       0.75061219      -0.03217373       0.01993229       0.02169736
V        6.17659664       3.15157437      12.20956230      -0.29975177      -0.50467037       0.23487786      -0.03804905      -0.00690109      -0.00102429
V        4.55651999       7.51608276       1.81496012       0.26681468       0.26167138      -1.09056485       0.99711919       0.77370071      -1.61355054
V        6.13509893       6.10141230       0.09749534       0.17081276       0.53434300      -0.08044325      -0.02722336      -0.00156184      -0.01441365
V        7.73632765       7.59062862       1.55153739      -0.00891712       0.49538828      -0.30624080      -0.44604883       0.48829287       0.30469620
V        6.25523567       9.24374104       0.00499771      -0.00240219      -0.42550615       0.76249500      -0.54113048      -0.48200291       0.81466901
Cr       7.66935396      10.69905663       1.66097856       0.01775890      -0.34186231      -0.50847438       0.04213970      -0.01324528       0.01786496
V        6.18273592       9.23654461       3.11395550      -0.19499223       0.25574014       0.29541568      -0.00842934      -0.01565441      -0.02362883
V        4.72270346      10.74210930       1.60036337      -0.42287666      -0.43901344      -0.28892879      -0.00217896       0.00649133      -0.00185625
V        6.28714323       6.28370571       3.13175416      -0.51499569      -0.53190903       0.14570733      -0.80302852      -0.90852755      -0.35922939
V        7.58544540      10.67313862       4.69896650      -0.21430593       0.16507638      -0.26590667       0.00706836      -0.00003283      -0.01008273
Cr       4.60424137      10.80962849       4.60891104       0.43461892      -0.53964268      -0.12099408       0.46761388      -0.68076342       0.13231364
Cr       6.10097265       9.16240311       6.15358973      -0.29900133      -0.06040721      -0.10025262      -0.05216032      -0.01100996      -0.00000903
V        4.45815897       7.61254406       4.46714878       0.51856850      -0.36677631       0.07427142       1.46729076       0.79823780       1.96607590
V        7.67323446       7.69873905       4.65112400       0.04453164      -0.41001946       0.28375663      -0.03290599      -0.04140873       0.06449431
Cr       6.33640718       6.14618254       6.10596943      -0.73653922       0.59058581      -0.35664615      -1.40229392       0.36477268      -0.05836900
V        7.69944620       7.76567411      10.64154911      -0.43892705       0.10152776      -0.19237785       0.03553396      -0.01270743      -0.01027801
V        6.19244432       9.18631840       9.13029194      -0.09491291      -0.17139175       0.43971294      -0.01832629      -0.01397188      -0.02375951
Cr       7.69945812      10.61348152      10.89123058      -0.29148120      -0.42632953      -0.33857956      -0.39356622       0.31359074      -1.07205772
V        7.60742950      10.68672562       7.64789057       0.79687644      -0.17898123       0.26919892       0.06783107      -0.93686908      -0.14310852
V        4.75099325       7.70330429      10.60015297      -0.26342258       0.05103057       0.37955954      -0.49300408       0.17982100       0.54340547
V        6.13649464       6.26635790       9.04122257       0.27124571       0.66345542       0.11605863       0.02177926       0.03544691       0.01096467
Cr       4.71212959      10.69269657      10.75628853      -0.42866492       0.27993713      -0.04132571      -0.02831765       0.03663485      -0.01208623
V        4.64971685      10.67028427       7.58782244       0.06476353      -0.10223770       0.25966376       0.05679424      -0.05810606      -0.10061415
Cr       4.68267727       7.69659710       7.55777073      -0.12987459      -0.65617537      -0.10831778       0.07965786       0.05771130      -0.02978490
Cr       7.65060949       7.66912413       7.58361626      -0.32780682       0.27829326       0.67451795      -0.02254922      -0.02787195       0.01548349
V        6.12483740       6.18808031      12.20983887      -0.16846634      -0.21079111      -0.61238153       0.00633378      -0.00363997      -0.09389298
V        4.67410183       7.74138546      13.67986584      -0.00919711      -0.55296009       0.20732502      -0.00672028       0.00734099      -0.00363103
V        7.65075588      10.69902611      13.68518734       0.22093420      -0.16466507       0.01312746      -0.00308017       0.00879942      -0.02587296
Cr       6.17527294       9.22186470      12.13679504      -0.01895721      -0.43729018       0.52813850       0.02912673      -0.03049915       0.00958252
Cr       7.48616028       7.57907295      13.64942551      -0.04106484       0.52607491      -0.07710788       0.33233273       0.42873022       0.23643136
V        4.65576553      10.72470760      13.64031029       0.12559811      -0.02796253      -0.23631542      -0.02482373      -0.03519008       0.06655133
121
Lattice="9.04215026885 0.0 0.0 0.0 12.0474946843 0.0 0.0 0.0 15.109870339" Properties=species:S:1:pos:R:3:force:R:3:forces:R:3 config_type=sia_aa parent_id=99999999 generation=9 step=88 variance=0.8840076923370361 loss=0.8840076923370361 energy=-1089.68552666999 pbc="T T T"
Cr       1.56340134       1.64708841       1.59606791       0.12336864      -0.55775086       0.26652868       0.68530369       0.13954970      -0.19026934
V        0.20699131       3.18944812       3.11545181      -0.30471008       0.36888619      -0.26157671       0.02962824       0.00143535       0.00517094
V        3.10337639       3.08138537       0.10893316      -0.14483782       0.42276353       0.19493684      -0.04027739      -0.00929312      -0.00610523
V        1.64681792       4.61638641       1.63395965       0.01524858      -0.46384834      -0.57507944      -0.01257373      -0.03066061       0.02426412
V        3.15988851       3.10520244       3.19522905      -0.08509405       0.23608282      -0.31136076      -0.02571316       0.28482646      -0.82491207
V        0.09324671       3.13676643       0.09141725       0.28828765      -0.55882773      -0.26871112       0.78642100      -0.57044125      -0.07943084
V        3.11415148       0.10112533       3.06812239       0.37805461       0.63142304       0.02508166       0.27310294       0.33014163       0.35580868
V        0.14089204       0.26807627       3.18459010       0.15998867      -0.27372486      -0.29410120      -0.15591621      -0.91378975      -0.61643314
V        3.07143831       0.17636666       0.06862298      -0.35674453      -0.13707954      -0.19979723       0.02137887      -0.00751403      -0.00572281
V        0.26285055       0.23988123       0.12044434       0.39279499      -0.14148923       0.51735942      -0.79515851      -0.51906317       0.05611710
V        2.94169235       0.10057901       6.08593750       0.13511636       0.32327942       0.30897587       1.38779438      -0.22139868       0.30597728
V        0.18162642       3.21534109       6.13606548      -0.38956597      -0.09577405      -0.11714668      -0.04694518       0.02256717       0.01350550
V        3.06494284       3.08779430       6.11006689      -0.22865876       0.48156623       0.44052387       0.01697160       0.85429811       0.14142522
V        1.63209975       1.63725638       4.62168074       0.11349473      -0.20055457      -0.22876322      -0.02283782       0.07133360      -0.04565477
Cr       1.65912223       4.65644407       4.64410305      -0.18164018      -0.13909514      -0.05803332       0.00279541       0.02276580       0.00422048
V        0.18269913      -0.09279291       6.16962194      -0.50040781       0.98748333      -0.12993435      -0.61399567       1.01718211       0.01003312
V        1.67280591       1.68106699      10.70444202       0.09284277       0.09780789      -0.04371548      -0.00001137      -0.00856000      -0.01664573
V        1.72523713       4.66998816      10.71731091       0.24891965      -0.13255286      -0.27944305      -0.03215814      -0.03870330       0.01590341
V        3.08644748       3.18244076       9.12833786      -0.24226432       0.20586085       0.21024379      -0.01200928       0.04198321      -0.04220943
V        0.13429505       0.00748764       9.10738659      -0.24410837       0.80602365       0.36256282       0.03192516       0.37754083       0.42824155
Cr       1.59492266       4.62470055       7.62411451       0.22888302       0.12901640       0.34742727       0.00311746      -0.01864224       0.00768176
V        3.13186622       0.24152094       9.06227303       0.21686370      -0.44867982       0.95057070       0.01872768      -0.98894632       0.57406574
V        0.14618565       3.18875790       9.13276958       0.16815693      -0.09169343       0.01600119       0.04450694       0.01040405       0.01616614
V        1.57162607       1.61770701       7.64771986      -0.07467103       0.04581711      -0.30137985       0.01420254       0.00378484       0.01188646
Cr       1.65737355       1.66373050      13.61160088       0.21551379       0.48192373       0.26571851      -0.00376371       0.00914320       0.01052188
Cr       0.18637663       3.04940605      12.18100262       0.28768070       0.04952769       0.07265712      -0.05300988       0.00295965       0.02001438
V        1.64387226       4.67264414      13.69882202      -0.07634035      -0.58774094      -0.14681849      -0.05567509      -1.05275702      -0.46880040
V        0.18238585       0.11563721      12.18725300      -0.31214203      -0.21112271       0.16380953      -0.00367013       0.03325918       0.00261429
Cr       3.25810719       3.22634149      12.09643459       0.15023462      -0.36455990       0.02632671      -0.89039934      -0.56925797       0.74497330
V        4.63510990       1.57939184       7.54435349      -0.13825882       0.06305176      -0.06047647       0.03710787       0.02682399      -0.02403849
Cr       3.17867637       0.15457074      12.14847469       0.13594777       0.06708415       0.01240439       0.01675369       0.01724268      -0.02821246
V        1.59434295       7.63916063       1.67168641      -0.31573477      -0.43787051      -0.11670711      -0.00880119      -0.00845557       0.00340301
V        0.02359836       9.16058731       0.18130861      -0.41727118       0.08700563       0.07074955       0.01101456      -0.02385820       0.01077062
V        1.59911036      10.71241760       1.66106355       0.12451573      -0.14523481       0.18908651       0.00736219       0.02556393       0.00852815
V        3.17290092       9.28454781       0.29911780       0.30973414       0.10444106      -0.38234872       0.01509010      -0.59640461      -1.10045171
V        2.99833417       6.06265593       0.17059858       0.21114748      -0.14190603       0.18283750       1.27080655      -0.01796678       0.19298320
V        3.11156702       6.26537085       3.15613556       0.24864179      -0.36286768       0.51937467      -0.46275267      -1.69297636      -0.10398529
V        0.16336134       6.11909962       3.16379261       0.02726826       0.40408804      -0.41071015       0.00971133      -0.00916780       0.01133085
V        3.26539230       9.23354340       3.05648494      -0.19989548       0.23965565       0.39695800      -0.94116008       0.19298005       0.82493734
V        0.07450554       9.10482979       3.12204623       0.18811493      -0.03344905      -0.22755072      -0.03171847       0.71658313       0.02413612
V        0.08312823       6.01950026      -0.01632602       0.39416593       0.51259765       0.86201062      -0.11139425       0.68037105       1.14522684
V        0.16655657       6.12384701       6.14484644      -0.04190235      -0.08556814      -0.30348755      -0.00988349      -0.00883541      -0.01836243
V        3.06855369       6.11693764       6.14677477       0.20860918      -0.05229005       0.17437783       0.04883499      -0.01893140       0.07054566
Cr       3.12963033       9.19370270       6.14298534      -0.19956182       0.02006404       0.05763686      -0.00986288      -0.05497603      -0.02550038
V        1.63938701       7.72882128       4.70233583      -0.03611526       0.43978534      -0.11759395      -0.02350875       0.00122468       0.00761700
V        1.60859835      10.56983185       4.64758778      -0.14714380       0.03495247       0.16214488       0.02131432       0.07166602      -0.01125690
Cr       0.09377344       9.10573292       6.19109106       0.35920676       0.03519844      -0.36619116      -0.00950562       0.04064313      -0.01281422
V        1.67478216       7.63197184      10.52726841       0.37468230      -0.84800609      -0.05239464       0.02268202       0.00336896      -0.01131767
V        1.72976243      10.64714622      10.57832623       0.19461945       0.13702701       0.51475732      -0.09363156       0.05613637       0.89352196
V        3.31091928       9.19315147       9.22728825      -0.60058442       0.52209752      -0.36571525      -0.77582091      -0.02987979      -0.82863748
Cr       1.62744021      10.57386780       7.64510632       0.34446019      -0.21103680      -0.27389820      -0.02508477       0.02373483      -0.05553460
Cr       0.18033712       9.12146759       9.15357780      -0.42468140      -0.45623039      -0.31589002      -0.00693895       0.02564500      -0.00431519
V       -0.04837652       5.99948454       9.03167725       0.26157478       0.32109079      -0.72278924       0.98933518       0.81225872      -0.18074875
V        1.63776326       7.64460278       7.67869663       0.21425658      -0.29311720      -0.27242643      -0.00371837       0.04322996      -0.09214501
Cr       3.13254356       6.16472673       9.13413525       0.13114898      -0.07698032       0.73799726      -0.04425590      -0.03167440      -0.05570469
V        1.87286699       7.82627773      13.93924999       0.07904385       0.27709667       0.22855053      -0.01526216       0.03173742      -0.08198674
V        0.08905642       9.03627872      12.30945301       0.12510576       1.01786707      -0.07278165      -0.09523760       1.31439793      -0.76854134
V        1.52401698      10.46809864      13.71018791       0.43598145       0.45394227       0.10056438       1.01777411       1.39196718      -0.12355189
Cr       3.19615102       9.21080494      12.15618038       0.70566422       0.22470573      -0.21984451       0.00780582       0.05488117      -0.05421579
V        0.57989794       6.63726521      12.63597107       0.04506623       0.36969481       0.03009417      -0.04565200      -0.04505585       0.01704307
V        3.20229936       6.23427296      12.19374847       0.39725823      -0.16635280       0.15196626       0.00922352      -0.00555082       0.03494184
V        7.67870665       1.62000263       1.64708781       0.38612614       0.56528880       0.21656025      -0.00472225      -0.03570975      -0.02516310
V        6.27412271       0.12107377       0.10439147      -0.88431171      -0.58113194       0.15639659      -0.39864266      -0.25194323       0.11043026
V        7.69244671       4.57487822       1.55665684       0.02175996      -0.47104544       0.72155284      -0.17178199       0.27741957       0.26686126
V        6.18487263       3.07850933       3.10202956      -0.21428843       0.57691073      -0.30100857      -0.39744216       0.72133207      -0.08339305
Cr       4.70169020       4.52470398       1.56026804      -0.17319122       0.54314502       0.39128033      -0.29640907       0.37271404       0.43661642
V        4.68694401       1.57910573       1.63749957      -0.37853052       0.23090911      -0.15344603       0.01093673      -0.04538678       0.00108933
Cr       6.20337343       0.09747730       3.22625422       0.22981768      -0.16057531      -0.49639897      -0.23697679      -0.10290918      -0.56906319
V        6.14973164       3.03062034       0.11486445      -0.03868783       0.26985406      -0.74226529      -0.15726411       0.40856299      -0.03483522
V        7.72577047       1.78493893       4.71538115       0.22401344      -0.64964792       0.14370252      -0.81118840      -0.96084499      -0.22500557
Cr       6.12037659       3.14093971       6.08196545       0.18916830       0.20292950      -0.03475224       0.03148264      -0.00576441       0.00355523
V        7.59576988       4.71557188       4.59975433       0.17616632      -0.40628320       0.36241230       0.16542882      -0.24047950       0.36716884
V        4.58864450       4.67097139       4.62934065       0.23974770      -0.01977110      -0.36023129       0.87341917      -0.15902106       0.09808221
V        4.72193336       1.62984192       4.63590813      -0.47069947      -0.08962739      -0.23536131      -0.00727478       0.00722154      -0.00244626
Cr       6.13322210       0.13934109       6.12173462      -0.02249125      -0.28372874      -0.16885494      -0.02980361      -0.12544042      -0.04505565
V        6.15428734       0.03014848       9.21224117      -0.20067602       0.26033203      -0.31201050       0.01655313      -0.06043997       0.02133681
V        4.58336782       4.77343416      10.80417347      -0.70661699      -0.00015184      -0.85645687      -0.07195193      -0.63310045      -1.12220001
V        7.62471628       1.54501534       7.57003784       1.16094605      -0.03019936      -0.15976805      -0.03019466       0.05593400      -0.02842952
V        7.58218145       1.76725340      10.58834553      -0.06716669      -0.45099652      -0.02603820       1.04611754      -1.50930119       0.83795184
V        5.92293215       2.87153268       9.05536366      -0.34720181       0.45736300       0.13315015       0.18822269       1.11424589      -0.48357421
Cr       7.14622355       4.25772429      10.20497990       0.43118762      -0.37569719       0.41132473       0.04124466       0.04401209      -0.00322522
V        4.69520998       1.53734100      10.71908665      -0.55886785       0.05101520       0.06849468      -0.80397910       0.24154441       0.35519391
V        7.54955912       4.60045052       7.50399542       0.33912771      -0.10549721      -0.31808309       0.02439292      -0.02447431       0.00094079
V        4.62449217       4.67568970       7.58309937       0.07568992      -0.63458670      -0.42083452       0.00530872      -0.02386726       0.00051100
Cr       8.40411186       5.43929577      11.43084812      -0.60199168      -0.78846703      -0.03709646       0.20726752      -0.70843410      -0.40316468
Cr       6.17207479       0.08549960      12.15731239      -0.11559591       0.58186782      -0.11723473       0.01084434       0.01643225      -0.03746346
V        7.71311998       1.63725436      13.63504887      -0.08497016       0.48898807      -0.23145881       0.01144569       0.00090367       0.00303241
V        4.61347294       4.60762167      13.71529198       0.19673503       0.02069819       0.45055840       0.00644022       0.01074424      -0.00418249
V        4.63022423       1.60172307      13.61830235       0.23184581      -0.12327891       0.14271754       0.02574471       0.00536515       0.00027856
V        7.67946005       4.57580614      13.70166779      -0.13233864       0.38334763       0.75061219      -0.03939828       0.00635389       0.02327299
V        6.17608070       3.15226460      12.20754623      -0.29975177      -0.50467037       0.23487786      -0.03628843      -0.00342705       0.00466040
V        4.56012630       7.51231432       1.80662096       0.26681468       0.26167138      -1.09056485       0.96204817       0.81113970      -1.55332637
V        6.13454628       6.09949923       0.10002088       0.17081276       0.53434300      -0.08044325      -0.02647871       0.01454672      -0.01677572
V        7.73115587       7.59648657       1.55120146      -0.00891712       0.49538828      -0.30624080      -0.40810084       0.45501924       0.27655089
V        6.25812912       9.23491859       0.00808847      -0.00240219      -0.42550615       0.76249500      -0.58383316      -0.42529067       0.79593062
Cr       7.66983557      10.69874477       1.66288793       0.01775890      -0.34186231      -0.50847438       0.04687701      -0.00015413      -0.00220951
V        6.17993498       9.23588085       3.11288929      -0.19499223       0.25574014       0.29541568       0.00141531      -0.01396427       0.00074466
V        4.72165394      10.74385738       1.60238528      -0.42287666      -0.43901344      -0.28892879       0.01948554       0.01200336      -0.00076747
V        6.28948784       6.29185486       3.12675786      -0.51499569      -0.53190903       0.14570733      -0.82255477      -0.95983362      -0.31319642
V        7.58463240      10.67487431       4.69560623      -0.21430593       0.16507638      -0.26590667       0.01323335       0.00723802       0.00103281
Cr       4.60444498      10.80035400       4.62767076       0.43461892      -0.53964268      -0.12099408       0.45904016      -0.61140060       0.03175285
Cr       6.10021257       9.16193295       6.15228891      -0.29900133      -0.06040721      -0.10025262      -0.04836516      -0.00610427       0.01039062
V        4.45453930       7.61092043       4.47078085       0.51856850      -0.36677631       0.07427142       1.46591401       0.80985451       1.89560246
V        7.67124367       7.69892073       4.65087795       0.04453164      -0.41001946       0.28375663      -0.03171358      -0.04018398       0.06993683
Cr       6.31300688       6.16272831       6.10776520      -0.73653922       0.59058581      -0.35664615      -1.28282237       0.26709116      -0.08199501
V        7.70100546       7.76762772      10.63673782      -0.43892705       0.10152776      -0.19237785       0.03443102      -0.01638750       0.01307608
V        6.19027519       9.18850517       9.13137913      -0.09491291      -0.17139175       0.43971294      -0.01455374      -0.02276290      -0.03833451
Cr       7.71130610      10.61148739      10.90473938      -0.29148120      -0.42632953      -0.33857956      -0.46892685       0.32722044      -1.15872717
V        7.60161591      10.67672634       7.65475512       0.79687644      -0.17898123       0.26919892       0.16376099      -0.80120152      -0.20202634
V        4.74716806       7.70147848      10.58134556      -0.26342258       0.05103057       0.37955954      -0.47250718       0.20909964       0.67979741
V        6.13629580       6.26459360       9.04455090       0.27124571       0.66345542       0.11605863       0.01473688       0.04687991      -0.00656271
Cr       4.70456219      10.69752693      10.75454712      -0.42866492       0.27993713      -0.04132571       0.01070123      -0.00770726       0.00682439
V        4.64963770      10.67170048       7.58318377       0.06476353      -0.10223770       0.25966376       0.04142997      -0.05049507      -0.08193322
Cr       4.68943596       7.69613457       7.55653811      -0.12987459      -0.65617537      -0.10831778       0.05023441       0.04622579      -0.05146014
Cr       7.64923859       7.67026138       7.57659292      -0.32780682       0.27829326       0.67451795      -0.00138924      -0.02463619       0.02162685
V        6.12661934       6.18940639      12.20140457      -0.16846634      -0.21079111      -0.61238153       0.00071692      -0.00027941      -0.02575646
V        4.67466974       7.73694134      13.68800735      -0.00919711      -0.55296009       0.20732502      -0.01848224       0.02612719      -0.06039362
V        7.65102386      10.70109272      13.67432690       0.22093420      -0.16466507       0.01312746      -0.00885495      -0.00806076       0.08163801
Cr       6.17792034       9.21403694      12.13811493      -0.01895721      -0.43729018       0.52813850      -0.01712912       0.01945433       0.00372818
Cr       7.47251320       7.59120941      13.65636444      -0.04106484       0.52607491      -0.07710788       0.41506994       0.34289116       0.16087310
V        4.65154266      10.72348404      13.65633297       0.12559811      -0.02796253      -0.23631542       0.01269761      -0.05944109      -0.03589358
121
Lattice="9.04215026885 0.0 0.0 0.0 12.0474946843 0.0 0.0 0.0 15.109870339" Properties=species:S:1:pos:R:3:force:R:3:forces:R:3 config_type=sia_aa parent_id=99999999 generation=9 step=99 variance=0.9005626440048218 loss=0.9005626440048218 energy=-1089.6941677190882 pbc="T T T"
Cr       1.56713331       1.64828074       1.59632349       0.12336864      -0.55775086       0.26652868       0.66828436       0.11799385      -0.17539088
V        0.20777953       3.19141865       3.11569691      -0.30471008       0.36888619      -0.26157671       0.03385392      -0.01640252       0.02395102
V        3.10009861       3.07915282       0.11313087      -0.14483782       0.42276353       0.19493684      -0.00516673      -0.01251373      -0.02398553
V        1.64516723       4.61351776       1.63603699       0.01524858      -0.46384834      -0.57507944      -0.00345603      -0.00704423       0.01192245
V        3.15621305       3.10060930       3.19651008      -0.08509405       0.23608282      -0.31136076       0.00798777       0.31356397      -0.82579696
V        0.10571180       3.12940454       0.09259074       0.28828765      -0.55882773      -0.26871112       0.68369472      -0.52244389      -0.09486155
V        3.12757349       0.11031567       3.07388115       0.37805461       0.63142304       0.02508166       0.18284988       0.27163431       0.33966541
V        0.13905260       0.26710635       3.18982840       0.15998867      -0.27372486      -0.29410120      -0.13650921      -0.88063973      -0.66874421
V        3.07635427       0.17448609       0.06890111      -0.35674453      -0.13707954      -0.19979723       0.00020737      -0.01088473      -0.00386834
V        0.26707751       0.23997667       0.12270468       0.39279499      -0.14148923       0.51735942      -0.82749546      -0.53128481       0.03338601
V        2.94314027       0.10304716       6.08238173       0.13511636       0.32327942       0.30897587       1.38064897      -0.23168485       0.33060271
V        0.18157120       3.21388364       6.14153290      -0.38956597      -0.09577405      -0.11714668      -0.02411170      -0.00122659       0.01646209
V        3.06204581       3.08603215       6.10717821      -0.22865876       0.48156623       0.44052387       0.05083811       0.87514061       0.16711804
V        1.63056004       1.64686167       4.62112665       0.11349473      -0.20055457      -0.22876322      -0.00783462       0.00746680      -0.04848906
Cr       1.66249633       4.65933847       4.64306259      -0.18164018      -0.13909514      -0.05803332      -0.01447721       0.00722207       0.02700732
V        0.18619238      -0.09147369       6.15787649      -0.50040781       0.98748333      -0.12993435      -0.65398514       0.98612928       0.11932684
V        1.67408431       1.68449891      10.71122932       0.09284277       0.09780789      -0.04371548      -0.00539140      -0.01156004      -0.02684361
V        1.72057819       4.66942739      10.71183491       0.24891965      -0.13255286      -0.27944305      -0.00293194      -0.03322161       0.03596083
V        3.08440447       3.18388629       9.12608051      -0.24226432       0.20586085       0.21024379      -0.00290727       0.02950020      -0.02800839
V        0.13652842       0.02579886       9.13543034      -0.24410837       0.80602365       0.36256282      -0.00397081       0.22838351       0.21931522
Cr       1.59459639       4.62702990       7.62144232       0.22888302       0.12901640       0.34742727       0.00109884      -0.03451414       0.02174024
V        3.13581300       0.24456482       9.06045246       0.21686370      -0.44867982       0.95057070      -0.01417178      -0.99803185       0.58425176
V        0.14654601       3.18463302       9.13148117       0.16815693      -0.09169343       0.01600119       0.05144105       0.01147470       0.03397861
V        1.56942403       1.61461985       7.65020084      -0.07467103       0.04581711      -0.30137985       0.02302898       0.02184861       0.00055747
Cr       1.65778112       1.66364610      13.61463261       0.21551379       0.48192373       0.26571851      -0.00359817       0.00004438       0.00476278
Cr       0.17512500       3.06996822      12.18256187       0.28768070       0.04952769       0.07265712       0.00639958      -0.11912680      -0.00812225
V        1.64233541       4.66926622      13.69655800      -0.07634035      -0.58774094      -0.14681849      -0.03764449      -1.03636599      -0.46429658
V        0.17813370       0.11449482      12.18874073      -0.31214203      -0.21112271       0.16380953       0.01358774       0.03392635      -0.00153775
Cr       3.27172613       3.21755719      12.09557915       0.15023462      -0.36455990       0.02632671      -0.98277962      -0.53142309       0.74852365
V        4.63825274       1.58158994       7.54187870      -0.13825882       0.06305176      -0.06047647       0.03126338       0.02389409      -0.01611874
Cr       3.17787433       0.15471876      12.14743519       0.13594777       0.06708415       0.01240439       0.01703839       0.02377990      -0.01584291
V        1.59562373       7.63790798       1.67189431      -0.31573477      -0.43787051      -0.11670711      -0.00820664      -0.00532268      -0.02160924
V        0.02459138       9.15224075       0.17755724      -0.41727118       0.08700563       0.07074955       0.01390474       0.00244009       0.01310869
V        1.59955561      10.71425533       1.66437984       0.12451573      -0.14523481       0.18908651       0.00722468       0.02878742      -0.00254318
V        3.17173910       9.28970432       0.30357772       0.30973414       0.10444106      -0.38234872       0.03518058      -0.63608223      -1.11327744
V        3.00024724       6.06052160       0.17244901       0.21114748      -0.14190603       0.18283750       1.23995483      -0.01802549       0.17568970
V        3.11148262       6.26733351       3.15211940       0.24864179      -0.36286768       0.51937467      -0.46181592      -1.73394048      -0.04500584
V        0.15989810       6.11641550       3.16793489       0.02726826       0.40408804      -0.41071015       0.03110394      -0.01460538       0.00898604
V        3.26478171       9.23755836       3.05673504      -0.19989548       0.23965565       0.39695800      -0.91537613       0.16830087       0.84012431
V        0.06865366       9.10142231       3.11192751       0.18811493      -0.03344905      -0.22755072       0.00463232       0.74843454       0.09858525
V        0.08450476       6.01717949      -0.02243394       0.39416593       0.51259765       0.86201062      -0.11872964       0.69842637       1.18717754
V        0.16754477       6.12176275       6.14117241      -0.04190235      -0.08556814      -0.30348755       0.00536333       0.00540870       0.01889826
V        3.07613063       6.11325836       6.15791178       0.20860918      -0.05229005       0.17437783       0.00029040       0.01934719      -0.02720911
Cr       3.12830234       9.19253254       6.14350414      -0.19956182       0.02006404       0.05763686      -0.00254574      -0.03926475      -0.01889151
V        1.64292657       7.72772980       4.70092773      -0.03611526       0.43978534      -0.11759395      -0.04602695       0.00833732       0.01897897
V        1.60911584      10.57177639       4.64794111      -0.14714380       0.03495247       0.16214488       0.01796832       0.05611005      -0.02077573
Cr       0.09399015       9.10553837       6.18791294       0.35920676       0.03519844      -0.36619116      -0.01176127       0.04764364       0.00408772
V        1.68153203       7.63313770      10.52615643       0.37468230      -0.84800609      -0.05239464      -0.03035242      -0.03365923       0.00621546
V        1.73280871      10.63272285      10.56857681       0.19461945       0.13702701       0.51475732      -0.13940132       0.17374095       0.95246744
V        3.31472564       9.19213295       9.24014091      -0.60058442       0.52209752      -0.36571525      -0.78962278      -0.02926598      -0.94470549
Cr       1.62849247      10.57578945       7.64241076       0.34446019      -0.21103680      -0.27389820      -0.03198681       0.01357961      -0.03209139
Cr       0.17921592       9.11710358       9.15610218      -0.42468140      -0.45623039      -0.31589002      -0.00189487       0.05213500      -0.03165763
V       -0.05495377       5.99174452       9.02357388       0.26157478       0.32109079      -0.72278924       1.02027464       0.86091435      -0.14635168
V        1.63732958       7.64554596       7.68269300       0.21425658      -0.29311720      -0.27242643      -0.01450889       0.03930227      -0.12783620
Cr       3.12295341       6.15907192       9.12467861       0.13114898      -0.07698032       0.73799726      -0.00160470      -0.00466241       0.00227585
V        1.87731314       7.83059931      13.93192482       0.07904385       0.27709667       0.22855053      -0.01080530      -0.00910153      -0.06112078
V        0.08930324       9.03829193      12.30422306       0.12510576       1.01786707      -0.07278165      -0.11744629       1.28368688      -0.76727796
V        1.51842988      10.45739841      13.69963455       0.43598145       0.45394227       0.10056438       1.04578102       1.46015203      -0.05659174
Cr       3.20394468       9.21577835      12.15259266       0.70566422       0.22470573      -0.21984451      -0.02107596       0.02870161      -0.04909071
V        0.57798153       6.63737392      12.63749313       0.04506623       0.36969481       0.03009417      -0.04267569      -0.03876725       0.02177835
V        3.20277596       6.23430204      12.19081974       0.39725823      -0.16635280       0.15196626      -0.00320135      -0.02614669       0.04098491
V        7.67549324       1.61828220       1.64258444       0.38612614       0.56528880       0.21656025      -0.01104563      -0.03404846      -0.02697903
V        6.25176764       0.09889253       0.10908179      -0.88431171      -0.58113194       0.15639659      -0.24546812      -0.06405894       0.07761718
V        7.70203972       4.57624817       1.55496037       0.02175996      -0.47104544       0.72155284      -0.22586519       0.26739770       0.27581903
V        6.18283033       3.07628322       3.10146379      -0.21428843       0.57691073      -0.30100857      -0.36189574       0.75282729      -0.07702105
Cr       4.69712305       4.51873207       1.57048595      -0.17319122       0.54314502       0.39128033      -0.27555236       0.41742408       0.37401018
V        4.68914175       1.57785118       1.63759959      -0.37853052       0.23090911      -0.15344603      -0.00707676      -0.01688190      -0.01566165
Cr       6.19624138       0.10429206       3.21053219       0.22981768      -0.16057531      -0.49639897      -0.16890882      -0.15756261      -0.45910081
V        6.14031553       3.05211091       0.11279326      -0.03868783       0.26985406      -0.74226529      -0.09749176       0.27065057       0.00081035
V        7.72642612       1.79208171       4.71246386       0.22401344      -0.64964792       0.14370252      -0.81244630      -1.03104854      -0.22175628
Cr       6.12296820       3.14080381       6.08045673       0.18916830       0.20292950      -0.03475224       0.03973338      -0.00518073       0.02385674
V        7.61081505       4.68613911       4.63839388       0.17616632      -0.40628320       0.36241230       0.01218784       0.01013191       0.04621329
V        4.58851337       4.66806221       4.63082409       0.23974770      -0.01977110      -0.36023129       0.88746351      -0.12952363       0.06532170
V        4.72370863       1.62995899       4.63660145      -0.47069947      -0.08962739      -0.23536131      -0.02073181      -0.00511102      -0.02078632
Cr       6.13216639       0.13702494       6.12030745      -0.02249125      -0.28372874      -0.16885494      -0.02988261      -0.13826638      -0.05809771
V        6.15352631       0.03085998       9.20992470      -0.20067602       0.26033203      -0.31201050       0.01876029      -0.07024257       0.01746419
V        4.58511066       4.77464628      10.81084156      -0.70661699      -0.00015184      -0.85645687      -0.06274313      -0.64863086      -1.17299306
V        7.62755108       1.54121244       7.56962395       1.16094605      -0.03019936      -0.15976805      -0.04225167       0.05425210      -0.01787961
V        7.58193541       1.76656961      10.57774544      -0.06716669      -0.45099652      -0.02603820       1.02960134      -1.50152421       0.92086256
V        5.92562580       2.88101578       9.05172348      -0.34720181       0.45736300       0.13315015       0.15802206       1.05629039      -0.44871187
Cr       7.15271997       4.25698853      10.20196629       0.43118762      -0.37569719       0.41132473      -0.00161908       0.06296701       0.01236854
V        4.68637276       1.53238142      10.72040462      -0.55886785       0.05101520       0.06849468      -0.71346688       0.29349011       0.32303035
V        7.54589128       4.60340071       7.50434780       0.33912771      -0.10549721      -0.31808309       0.03084561      -0.02650071       0.01473231
V        4.62565660       4.67846918       7.58032417       0.07568992      -0.63458670      -0.42083452      -0.00634946      -0.03229084       0.00850731
Cr       8.40610313       5.43659496      11.43085384      -0.60199168      -0.78846703      -0.03709646       0.19979569      -0.67718053      -0.40138397
Cr       6.17708445       0.08436081      12.15737152      -0.11559591       0.58186782      -0.11723473      -0.01550989       0.00450481      -0.03293423
V        7.71134853       1.63581288      13.63087845      -0.08497016       0.48898807      -0.23145881       0.00084566       0.00705317       0.03968815
V        4.61172295       4.60913467      13.71478367       0.19673503       0.02069819       0.45055840       0.01264374       0.00388455       0.00233882
V        4.63275957       1.59939361      13.62030411       0.23184581      -0.12327891       0.14271754       0.01422138       0.00922882      -0.00461661
V        7.67903376       4.57528782      13.70268440      -0.13233864       0.38334763       0.75061219      -0.02998603       0.00933098       0.01598729
V        6.17877626       3.15147614      12.20583916      -0.29975177      -0.50467037       0.23487786      -0.04343458      -0.00413365       0.00431972
V        4.56750393       7.50216103       1.81206751       0.26681468       0.26167138      -1.09056485       0.89512175       0.91212910      -1.63937330
V        6.13355827       6.10573673       0.09314136       0.17081276       0.53434300      -0.08044325      -0.01543278      -0.01051096       0.02750086
V        7.72606087       7.60760593       1.55051792      -0.00891712       0.49538828      -0.30624080      -0.38562125       0.38552362       0.23635566
V        6.25930691       9.23400021      -0.00069318      -0.00240219      -0.42550615       0.76249500      -0.62142861      -0.45522317       0.86706913
Cr       7.66884851      10.70146656       1.65924621       0.01775890      -0.34186231      -0.50847438       0.04677312      -0.01186717       0.01600524
V        6.18181801       9.23493767       3.11392689      -0.19499223       0.25574014       0.29541568      -0.01261500      -0.00127340       0.00030635
V        4.72731161      10.74654961       1.60847604      -0.42287666      -0.43901344      -0.28892879      -0.04937794      -0.02616768      -0.03493035
V        6.28600121       6.30510712       3.10750651      -0.51499569      -0.53190903       0.14570733      -0.72592038      -1.10469651      -0.12765288
V        7.58332205      10.67877865       4.69041348      -0.21430593       0.16507638      -0.26590667       0.00983751       0.00342556       0.01163937
Cr       4.60434723      10.78994751       4.63289976       0.43461892      -0.53964268      -0.12099408       0.45569974      -0.54847324       0.01733244
Cr       6.09530401       9.16210175       6.15160799      -0.29900133      -0.06040721      -0.10025262      -0.02788885      -0.00063213       0.00309572
V        4.45784950       7.60826683       4.47198057       0.51856850      -0.36677631       0.07427142       1.44179153       0.82798910       1.88824677
V        7.66916037       7.69629526       4.64805555       0.04453164      -0.41001946       0.28375663      -0.03388751      -0.03005744       0.06614103
Cr       6.30657959       6.17816639       6.09679747      -0.73653922       0.59058581      -0.35664615      -1.23164248       0.16604142      -0.00632897
V        7.70579338       7.76667547      10.63974094      -0.43892705       0.10152776      -0.19237785       0.01233921      -0.03167922      -0.01291642
V        6.19439697       9.18741226       9.13602161      -0.09491291      -0.17139175       0.43971294      -0.03179757      -0.01757964      -0.05708738
Cr       7.70399141      10.60356236      10.89475346      -0.29148120      -0.42632953      -0.33857956      -0.41004509       0.39471698      -1.08403504
V        7.59670067      10.66825771       7.65126657       0.79687644      -0.17898123       0.26919892       0.23277466      -0.69431490      -0.17519568
V        4.74435329       7.70215797      10.57644653      -0.26342258       0.05103057       0.37955954      -0.42209226       0.17031258       0.72884655
V        6.13440609       6.26645565       9.04399872       0.27124571       0.66345542       0.11605863       0.01835911       0.03615450      -0.00338169
Cr       4.71046448      10.69689274      10.75936031      -0.42866492       0.27993713      -0.04132571      -0.00907202      -0.00404351      -0.02036500
V        4.64766455      10.67249489       7.58607721       0.06476353      -0.10223770       0.25966376       0.05276325      -0.05892786      -0.09289093
Cr       4.68841028       7.69533968       7.55831575      -0.12987459      -0.65617537      -0.10831778       0.05919787       0.05350666      -0.05998559
Cr       7.64940119       7.67205715       7.57500553      -0.32780682       0.27829326       0.67451795      -0.01222582      -0.02953850       0.01559730
V        6.12888241       6.18847656      12.20628929      -0.16846634      -0.21079111      -0.61238153      -0.00284430       0.02883090      -0.06383857
V        4.67363453       7.73630142      13.68456554      -0.00919711      -0.55296009       0.20732502      -0.03060758       0.02467900      -0.04578775
V        7.65008545      10.69737148      13.68793583       0.22093420      -0.16466507       0.01312746       0.01018112       0.03207878      -0.05388372
Cr       6.17340326       9.21669865      12.14394188      -0.01895721      -0.43729018       0.52813850       0.03152189      -0.00373500      -0.03555015
Cr       7.46757746       7.60189438      13.65420055      -0.04106484       0.52607491      -0.07710788       0.45680779       0.28744632       0.15691964
V        4.65383244      10.72176075      13.65628910       0.12559811      -0.02796253      -0.23631542      -0.01149606      -0.05160102      -0.02682678
