122
Lattice="15.100251138 0.0 0.0 0.0 9.06015068278 0.0 0.0 0.0 12.0802009104" Properties=species:S:1:pos:R:3:force:R:3 config_type=di-sia pbc="T T T"
V        1.64799719       1.35037642       4.39999679      -0.36587870       0.14676284       0.26096739
V        0.10023745       2.90208010       2.89108185      -0.12586468       0.03433973       0.00158128
V        1.62112722       1.42222727       1.45059316      -0.17162178      -0.48986580      -0.15185871
V        0.12342785       2.93619444       5.88955895       0.14078846      -0.38299034       0.37673514
V        1.56547738       4.35475248       4.43346196       0.18610748       0.50910618      -0.20399171
V        2.97401563       2.93995775       2.93876290       0.70828261      -0.45906649       0.22706643
Cr       3.15758011       2.87450451       5.79758384       0.05657618       0.09440748       0.61230082
V        1.60646915       4.45969218       1.40644021      -0.54401163      -0.17960151      -0.14616453
Cr       6.22555600       2.81459273       5.85091924      -0.36085173       0.22342113      -0.22283418
V        4.62339583       1.32178472       4.32263270       0.02737985       0.41010477       0.20490755
V        4.58018372       4.44127082       4.35224989       0.58339221      -0.41310784       0.35790154
V        5.81914756       3.34227360       0.32135969      -0.11384728       0.34992072       0.13414051
V        4.57004162       1.41296013       1.36608820       0.23210293      -0.18252576       0.81849694
V        6.08548588       2.88348939       2.94305306       0.45117081       0.29384156      -0.04562392
V        4.38515997       4.61490018       1.52600033       0.74370913      -0.14887329       0.26904106
V        1.60344909       1.36779110       7.37743703       0.26131946       0.19149700       0.17343776
V        1.68230910       1.38170591      10.36197108      -0.38663856       0.05685454       0.11397554
Cr       1.56411318       4.39244196      10.54373859       0.13727101       0.13583651      -0.88998385
V        0.13191974       2.93598746       8.92640291       0.31980143      -0.24163957      -0.15673077
V        0.09760971       2.78861653      11.99195146      -0.04399461       0.71374445      -0.32658813
Cr       3.16374252       2.85597024       8.73125686       0.06444441       0.29233852       0.57134766
V        2.99959668       3.05081522      12.07860151      -0.26497230      -0.51969992      -0.18017283
V        1.67708752       4.49731580       7.40371429      -0.33373474      -0.86551173      -0.01778362
Cr       6.21464243       2.85441788       8.81968507      -0.21533768       0.38259120      -0.20219532
V        4.36643754       1.69614864      10.79164615       0.04606738      -0.13662944      -0.72564571
Cr       5.77667869       0.40301583       9.57337105      -0.49768628      -0.44644425      -0.38881894
V        4.47488651       4.47193231      10.40421415       0.84579426      -0.11976945      -0.04409547
V        7.00340239       2.04898648      11.10729314       0.20467637      -0.14500744       0.22315949
V        4.68801174       4.37319267       7.36469825      -0.10299785       0.12087042       0.03390648
V        4.79927378       1.29404919       7.31727123      -0.30070613       0.17801101      -0.04141129
V        1.74257839       7.42391381       1.36864725      -0.57124921       0.12971358       0.14083290
Cr       1.61920792       7.34227837       4.48927174      -0.04927341       0.67327227      -0.21320187
V        3.07166392       5.96637736       2.93857473       0.20405911      -0.09021369       0.21004877
Cr       0.21631933       8.87416828       2.76391045      -0.18632050       0.38292717       0.85834491
Cr       0.14252285       5.89590012       5.92517861      -0.14441438       0.10345326       0.09956149
V        0.08183330       5.90048194       2.90285158       0.34691665       0.15178821       0.04977573
V        3.08791198       8.91659951       5.98675565       0.55589946      -0.01661753      -0.54239576
Cr       3.10193029       5.89081966       5.90944800       0.32578007      -0.09082330       0.10070624
V        3.14067348       8.89651288       3.04780458      -0.10598743       0.13893450      -0.97835700
V        0.08062932       8.97554224       5.99821490       0.47736408      -0.29318210      -0.35958845
Cr       4.65612716       7.46378600       4.41457018      -0.04421467      -0.45298984       0.14297403
V        6.13998791       5.87798679       5.88668943      -0.29879373      -0.13218156      -0.01322526
V        6.24453246       5.98700967       2.97739320      -0.26575646      -0.45900853      -0.40911198
Cr       4.60779695       7.35555343       1.44749784       0.32157921       1.01157008      -0.15940702
Cr       6.14021371       8.86438369       2.77457941       0.08684101       0.49760766       0.75684886
V        6.20312672       8.93442815       5.70756564       0.28334670      -0.47145504       0.42007941
V        1.59709852       7.37965738       7.44022772       0.22318832       0.07601629       0.24258350
V        1.63859834       7.43000095      10.43225076       0.18149125       0.19376652      -0.03438093
V        0.15477052       8.88966367      11.87604175       0.38191199       0.68472969       0.59474338
V        0.10471671       5.93053191      11.91781441       0.32316610       0.07623081       0.35646339
V        0.13255668       5.86394026       8.96093121       0.16851355       0.36920163       0.02375374
V        3.22770926       8.94766557       8.92395677      -0.72101319      -0.12608125      -0.00867691
V        0.18238281       8.97550460       8.96989728      -0.06218527      -0.20815084      -0.08097632
Cr       3.08618086       5.86975457       8.95465590       0.33808416       0.28430536      -0.15309352
V        3.05015665       8.99194083      11.98865858       0.53043149      -0.43887057       0.01169525
V        3.12919541       6.00606139      11.94349895      -0.37731737      -0.18181957       0.00480132
V        6.18885439       8.91377703      12.07051040      -0.22597368      -0.38196772       0.23595474
V        6.89402201       8.19923879       8.13647631      -0.47738432       0.42370668       0.10106515
Cr       6.19798981       5.86565257       8.93272526      -0.42451744      -0.54657170      -0.26559470
V        4.62141069       7.38943255      10.52680373       0.14362377       0.08193017      -0.40977597
V        4.57241250       7.43722650       7.38940433       0.08852217      -0.14537783       0.23978172
Cr       6.13802159       5.94577328      11.98113197      -0.08912998      -0.06012612      -0.02735899
Cr      10.64403061       1.27224085       1.26712276       0.60077273       0.21397182       0.47973564
Cr       7.69665916       1.35315185       4.35967300       0.01397884      -0.10314918      -0.28563602
V        9.24112790       2.84635500       2.92155519      -0.20333036       0.07187285      -0.62561429
V        9.17957909       2.74705086       5.82534760       0.60718731       0.47678775       0.25825239
V        7.71225804       1.46168550       1.48195087      -0.20627133      -0.38632234       0.07867734
Cr      10.77170065       4.26320075       4.22467394      -0.13751938       0.00984185       0.24014408
V       10.81469638       1.41263084       4.41326243      -0.48956981      -0.76480001      -0.55770738
V       10.67347845       4.49561290       1.22708122       0.16002877      -0.56169914       0.52305544
V        7.70563463       4.35017067       4.32662180      -0.15720929      -0.02716086       0.15456123
V        7.85574336       4.48568719       1.38800944      -0.55542950      -0.46068566       0.26292232
V       12.26629622       2.82296608       2.77266954      -0.28499339       0.45366599       0.15812236
V       13.67311276       4.50140838       1.35446900       0.57068625      -0.87971677       0.10238262
V       13.75355335       1.36636104       1.33989561      -0.09987881      -0.28539337       0.10084127
V       12.21417447       2.78797677       5.85864342       0.40802588       0.58628757       0.19605796
Cr      13.78864615       4.43141096       4.40622506      -0.49697074      -0.60335110      -0.25066359
V       13.72608124       1.44362164       4.35813946       0.19050144      -0.65817263       0.02238316
V       10.84809568       1.36532613       7.41859815      -0.67754629      -0.10541594      -0.41258002
Cr       9.09388869       2.90037721       8.90122642       0.65719973      -0.27156425       0.14251064
V        7.83185580       1.34878642       7.28746588      -0.50959902      -0.19928314       0.06368787
Cr       7.74075566       4.26563748       7.27433195      -0.36268432      -0.22514473       0.56875242
V        8.34695782       0.69230559       9.93041438      -0.23189620       0.61760264      -0.30347686
V        9.31244248       2.81080120      11.87020863      -0.10284714       0.26637580       0.22787990
Cr      10.81375555       1.35782776      10.36065393      -0.05040405      -0.23883826       0.30137553
V       10.82645670       4.22136223       7.41521118      -0.48397329       0.27257317      -0.03256060
V       10.70104464       4.35190178      10.47571691       0.18844055       0.05568121      -0.63059327
V        7.63422597       4.33868318      10.50855172      -0.02267244       0.88240902      -0.46483258
V       13.79344435       1.37703942       7.44923143      -0.35579214       0.25190929      -0.13503623
V       12.23092118       2.84290217       9.03594324       0.21762209       0.32331312      -0.81482883
V       13.68063937       4.39834094       7.40216192       0.07258204      -0.07280410       0.09094233
V       13.73125578       1.40629909      10.44589273       0.05992922      -0.16685900      -0.03411302
V       12.30910378       2.94981759      12.02290463      -0.61321517      -0.32152958      -0.65962762
V       13.81386027       4.41666822      10.38803196      -0.59604501      -0.16360521       0.25432363
V        9.50139789       5.68719677       5.70684121      -0.29799372      -0.49263579      -0.19565171
V        9.23121160       5.94850167       2.85754142       0.09238354      -0.12181509      -0.34320362
V        9.19037036       8.90636333       2.90163791       0.26222051      -0.07077882      -0.22257083
V        7.79513537       7.32365943       4.41632011      -0.56914194       0.59930740      -0.80182474
Cr       9.31321396       8.85941613       5.74686393       0.07795040       0.20374581       0.47107962
V       10.86550096       7.50815534       4.34153389      -0.43826408      -0.76782883      -0.76169399
V       10.77621660       7.39739193       1.26778133      -0.27787228      -0.04961746       0.30894648
V        7.64023785       7.34424470       1.37388765       0.33573548       0.17522303       0.29811776
V       12.29913103       5.80877025       5.66910469       0.17061196       0.22140618       0.97428221
V       12.22367681       5.84088063       2.76388223       0.09103692       0.76714046       0.37649079
V       13.73266702       7.51772353       4.34736701       0.51607196      -0.72008589      -0.17119762
V       12.34062144       8.83397621       2.81152564      -0.50146688       0.95907444       0.00685448
Cr      12.29922512       8.90897882       5.83935650       0.29696050       0.29683461       0.25634358
V       13.84754183       7.36166879       1.41425847      -0.63503855       0.12187802      -0.79159094
V        8.13712549       6.84876830       7.04456352       0.12257305      -0.22751513      -0.59244185
V        9.50017483       8.50520469       8.50437677       0.46666732       0.09671333      -0.16623779
V        9.15538105       5.72835789       8.93353437       0.78035814       0.02572095       0.19886972
Cr      10.75006165       7.46925220      10.39311242      -0.20677149      -0.61166864       0.24192206
V        7.62907966       7.26976895      10.53762323       0.20765771       0.41897251      -0.62458844
Cr      10.97115568       7.15617366       7.20822013      -0.20456351       0.54808838       0.16660027
Cr       9.19088781       5.92229027      11.84904005       0.24553545      -0.30670461       0.44950805
V        9.15908791       8.77755489      11.98809408       0.46415044       0.63930109       0.45156516
Cr      13.81451885       7.35612733       7.48640345      -0.25232211       0.52875350      -0.41537832
V       12.25462998       8.97441325       8.85952903       0.51000404      -0.47243637       0.48093477
Cr      12.29132218       5.85010072      11.89156537      -0.28380703       0.61801368      -0.05872632
V       12.17531838       5.91862105       8.89049160       0.59312678      -0.46767871       0.58871199
V       13.85986665       7.51286887      10.52614516      -0.94005271      -0.64754841      -0.91856949
Cr      12.23223833       8.89318236      11.89372927       0.14721479       0.16271158       0.20417447
122
Lattice="15.100251138 0.0 0.0 0.0 9.06015068278 0.0 0.0 0.0 12.0802009104" Properties=species:S:1:pos:R:3:force:R:3:forces:R:3 config_type=di-sia_aa parent_id=99999999 generation=9 step=0 variance=0.0702512115240097 loss=0.0702512115240097 energy=-1096.5377104306585 pbc="T T T"
V        1.64799714       1.35037637       4.39999676      -0.36587870       0.14676284       0.26096739      -0.38832006       0.03832868       0.16422763
V        0.10023745       2.90208006       2.89108181      -0.12586468       0.03433973       0.00158128      -0.26617533       0.19218194       0.26703793
V        1.62112725       1.42222726       1.45059311      -0.17162178      -0.48986580      -0.15185871      -0.38551754      -0.57838875      -0.03056720
V        0.12342785       2.93619442       5.88955879       0.14078846      -0.38299034       0.37673514      -0.12251638      -0.22121851       0.05294102
V        1.56547737       4.35475254       4.43346214       0.18610748       0.50910618      -0.20399171       0.49978173       0.52906835       0.25253224
V        2.97401571       2.93995786       2.93876290       0.70828261      -0.45906649       0.22706643       0.81714451      -0.42647624       0.06832752
Cr       3.15758014       2.87450457       5.79758406       0.05657618       0.09440748       0.61230082       0.12735693       0.14833161       0.69126052
V        1.60646915       4.45969200       1.40644026      -0.54401163      -0.17960151      -0.14616453      -0.52676737      -0.19426131      -0.14814502
Cr       6.22555590       2.81459284       5.85091925      -0.36085173       0.22342113      -0.22283418      -0.07612926       0.06657035      -0.08518716
V        4.62339592       1.32178473       4.32263279       0.02737985       0.41010477       0.20490755       0.19578683       0.48911461       0.31968254
V        4.58018351       4.44127083       4.35225010       0.58339221      -0.41310784       0.35790154       0.17965719      -0.47634530       0.76638925
V        5.81914759       3.34227371       0.32135969      -0.11384728       0.34992072       0.13414051      -0.05214821       0.31901088       0.04785701
V        4.57004166       1.41296017       1.36608815       0.23210293      -0.18252576       0.81849694       0.32278091      -0.19589755       0.83825511
V        6.08548594       2.88348937       2.94305301       0.45117081       0.29384156      -0.04562392       0.47848162       0.07947366       0.09206402
V        4.38515997       4.61490011       1.52600038       0.74370913      -0.14887329       0.26904106       1.16669846      -0.49760336      -0.17612794
V        1.60344911       1.36779106       7.37743711       0.26131946       0.19149700       0.17343776       0.61731720       0.51807469       0.22563684
V        1.68230915       1.38170588      10.36197090      -0.38663856       0.05685454       0.11397554      -0.36919171       0.16505562       0.07914857
Cr       1.56411314       4.39244175      10.54373837       0.13727101       0.13583651      -0.88998385       0.17064320       0.21795338      -0.90472651
V        0.13191974       2.93598747       8.92640305       0.31980143      -0.24163957      -0.15673077       0.47080809      -0.05855517       0.21605763
V        0.09760971       2.78861642      11.99195099      -0.04399461       0.71374445      -0.32658813       0.14968798       0.81467533      -0.41727549
Cr       3.16374254       2.85597014       8.73125648       0.06444441       0.29233852       0.57134766      -0.00985659       0.40761074       0.60168141
V        2.99959660       3.05081511      12.07860184      -0.26497230      -0.51969992      -0.18017283      -0.45839757      -0.29945982      -0.36795896
V        1.67708755       4.49731588       7.40371418      -0.33373474      -0.86551173      -0.01778362       0.12474521      -0.62388432      -0.23089181
Cr       6.21464252       2.85441780       8.81968498      -0.21533768       0.38259120      -0.20219532      -0.12764880       0.40964478      -0.27810174
V        4.36643744       1.69614863      10.79164600       0.04606738      -0.13662944      -0.72564571       0.15806425      -0.34160495      -0.95591342
Cr       5.77667856       0.40301582       9.57337093      -0.49768628      -0.44644425      -0.38881894      -0.69577038      -0.29965338      -0.55643696
V        4.47488642       4.47193241      10.40421391       0.84579426      -0.11976945      -0.04409547       0.82641828       0.11458614      -0.30689269
V        7.00340223       2.04898643      11.10729313       0.20467637      -0.14500744       0.22315949       0.36348289       0.16051266       0.13990140
V        4.68801165       4.37319279       7.36469841      -0.10299785       0.12087042       0.03390648      -0.40123639      -0.09292945       0.08052894
V        4.79927397       1.29404914       7.31727123      -0.30070613       0.17801101      -0.04141129      -0.18488240       0.60277510      -0.01399284
V        1.74257839       7.42391396       1.36864722      -0.57124921       0.12971358       0.14083290      -1.02955592       0.33766049       0.39134774
Cr       1.61920798       7.34227848       4.48927164      -0.04927341       0.67327227      -0.21320187       0.03367810       0.27022517      -0.13929421
V        3.07166386       5.96637726       2.93857479       0.20405911      -0.09021369       0.21004877       0.29650652       0.29109555       0.29221588
Cr       0.21631932       8.87416840       2.76391053      -0.18632050       0.38292717       0.85834491      -0.12083215       0.39820927       0.74158591
Cr       0.14252286       5.89590025       5.92517853      -0.14441438       0.10345326       0.09956149      -0.09222671       0.32594451      -0.17796868
V        0.08183330       5.90048218       2.90285158       0.34691665       0.15178821       0.04977573       0.46371639       0.05915653       0.34501517
V        3.08791208       8.91659927       5.98675585       0.55589946      -0.01661753      -0.54239576       0.27824667      -0.28393263      -0.85056198
Cr       3.10193038       5.89081955       5.90944815       0.32578007      -0.09082330       0.10070624       0.15122364       0.17882806       0.01332472
V        3.14067340       8.89651299       3.04780459      -0.10598743       0.13893450      -0.97835700       0.10240549      -0.28907391      -0.78324878
V        0.08062932       8.97554207       5.99821472       0.47736408      -0.29318210      -0.35958845       0.53955114      -0.51217395      -0.44779810
Cr       4.65612698       7.46378613       4.41457033      -0.04421467      -0.45298984       0.14297403      -0.09598391      -0.23408604      -0.07051563
V        6.13998795       5.87798691       5.88668966      -0.29879373      -0.13218156      -0.01322526      -0.25525093       0.05944304      -0.02611250
V        6.24453259       5.98700953       2.97739315      -0.26575646      -0.45900853      -0.40911198      -0.68692493      -0.22010446      -0.37952003
Cr       4.60779715       7.35555363       1.44749784       0.32157921       1.01157008      -0.15940702       0.62880230       0.87212420      -0.02101814
Cr       6.14021349       8.86438370       2.77457952       0.08684101       0.49760766       0.75684886      -0.16832910       0.21697748       0.70744908
V        6.20312691       8.93442822       5.70756578       0.28334670      -0.47145504       0.42007941       0.19531536      -0.49492308       0.00674450
V        1.59709847       7.37965727       7.44022751       0.22318832       0.07601629       0.24258350       0.41131485      -0.21251127       0.16462582
V        1.63859832       7.43000078      10.43225098       0.18149125       0.19376652      -0.03438093       0.25988036      -0.07563946      -0.07875978
V        0.15477052       8.88966370      11.87604141       0.38191199       0.68472969       0.59474338       0.23981981       0.54761809       0.64288974
V        0.10471671       5.93053198      11.91781425       0.32316610       0.07623081       0.35646339       0.67242372      -0.16680555       0.15863347
V        0.13255668       5.86394024       8.96093082       0.16851355       0.36920163       0.02375374       0.11358317       0.34823376       0.03478952
V        3.22770929       8.94766521       8.92395687      -0.72101319      -0.12608125      -0.00867691      -0.65118378      -0.00214898       0.04844638
V        0.18238281       8.97550488       8.96989727      -0.06218527      -0.20815084      -0.08097632      -0.15464726      -0.42961419      -0.31822538
Cr       3.08618093       5.86975479       8.95465565       0.33808416       0.28430536      -0.15309352       0.31821108       0.08424175      -0.05782020
V        3.05015659       8.99194050      11.98865891       0.53043149      -0.43887057       0.01169525       0.59605253      -0.49062404       0.13892411
V        3.12919545       6.00606155      11.94349861      -0.37731737      -0.18181957       0.00480132      -0.44677168      -0.16623473      -0.00430324
V        6.18885422       8.91377735      12.07051086      -0.22597368      -0.38196772       0.23595474      -0.28093410      -0.53082806       0.16861074
V        6.89402199       8.19923878       8.13647652      -0.47738432       0.42370668       0.10106515      -0.63229877       0.00581023       0.25744775
Cr       6.19798994       5.86565256       8.93272495      -0.42451744      -0.54657170      -0.26559470      -0.38763297      -0.62052464       0.02378991
V        4.62141085       7.38943243      10.52680397       0.14362377       0.08193017      -0.40977597       0.49426019      -0.15501216      -0.53096282
V        4.57241249       7.43722630       7.38940430       0.08852217      -0.14537783       0.23978172      -0.26792818      -0.49898109       0.27878267
Cr       6.13802147       5.94577312      11.98113155      -0.08912998      -0.06012612      -0.02735899      -0.13263701       0.28787488      -0.16320680
Cr      10.64403057       1.27224088       1.26712275       0.60077273       0.21397182       0.47973564       0.64788401       0.16753522       0.14230664
Cr       7.69665909       1.35315180       4.35967302       0.01397884      -0.10314918      -0.28563602      -0.15667240      -0.04282096      -0.18823060
V        9.24112797       2.84635496       2.92155528      -0.20333036       0.07187285      -0.62561429      -0.03133997      -0.00876423      -0.39042205
V        9.17957878       2.74705076       5.82534742       0.60718731       0.47678775       0.25825239       0.43000349       0.54439878      -0.00053387
V        7.71225786       1.46168554       1.48195088      -0.20627133      -0.38632234       0.07867734      -0.19516978      -0.50622016       0.24381617
Cr      10.77170086       4.26320076       4.22467375      -0.13751938       0.00984185       0.24014408      -0.09789483       0.32708743       0.31389445
V       10.81469631       1.41263080       4.41326237      -0.48956981      -0.76480001      -0.55770738      -0.48385963      -1.17470479      -0.39120778
V       10.67347813       4.49561310       1.22708118       0.16002877      -0.56169914       0.52305544       0.32641488      -0.41306776       0.26602930
V        7.70563459       4.35017061       4.32662201      -0.15720929      -0.02716086       0.15456123      -0.23214382      -0.23747736       0.20408426
V        7.85574341       4.48568726       1.38800943      -0.55542950      -0.46068566       0.26292232      -0.56731474      -0.18667611      -0.07685380
V       12.26629639       2.82296610       2.77266955      -0.28499339       0.45366599       0.15812236      -0.54266965       0.59934103       0.49688876
V       13.67311287       4.50140858       1.35446894       0.57068625      -0.87971677       0.10238262       0.32235092      -0.73294866      -0.23873901
V       13.75355339       1.36636102       1.33989561      -0.09987881      -0.28539337       0.10084127      -0.10062999      -0.57196999       0.08106504
V       12.21417427       2.78797674       5.85864353       0.40802588       0.58628757       0.19605796       0.50355721       0.94097745      -0.16600363
Cr      13.78864574       4.43141079       4.40622520      -0.49697074      -0.60335110      -0.25066359      -0.35596162      -0.32149103      -0.19700979
V       13.72608089       1.44362164       4.35813951       0.19050144      -0.65817263       0.02238316       0.31811142      -0.82118583       0.02517026
V       10.84809589       1.36532617       7.41859818      -0.67754629      -0.10541594      -0.41258002      -0.70480514      -0.28367466      -0.64152431
Cr       9.09388828       2.90037727       8.90122604       0.65719973      -0.27156425       0.14251064       0.56520140      -0.20862103       0.02949390
V        7.83185577       1.34878647       7.28746605      -0.50959902      -0.19928314       0.06368787      -0.51376015       0.00057771       0.07815742
Cr       7.74075556       4.26563740       7.27433205      -0.36268432      -0.22514473       0.56875242      -0.44752607      -0.52840918       0.67502534
V        8.34695816       0.69230556       9.93041420      -0.23189620       0.61760264      -0.30347686      -0.26712239       0.89367032      -0.37482309
V        9.31244278       2.81080127      11.87020874      -0.10284714       0.26637580       0.22787990       0.33362970      -0.23770279       0.26239371
Cr      10.81375599       1.35782778      10.36065388      -0.05040405      -0.23883826       0.30137553       0.23552406      -0.16342142       0.50506365
V       10.82645702       4.22136211       7.41521120      -0.48397329       0.27257317      -0.03256060      -0.65930742       0.10342254      -0.01170203
V       10.70104504       4.35190201      10.47571659       0.18844055       0.05568121      -0.63059327       0.10923781       0.34186611      -0.46232080
V        7.63422585       4.33868313      10.50855160      -0.02267244       0.88240902      -0.46483258       0.13074449       1.02956104      -0.49817976
V       13.79344463       1.37703943       7.44923162      -0.35579214       0.25190929      -0.13503623      -0.51289356       0.03238458      -0.23357253
V       12.23092079       2.84290218       9.03594303       0.21762209       0.32331312      -0.81482883       0.05336471       0.06393766      -0.47367358
V       13.68063927       4.39834070       7.40216208       0.07258204      -0.07280410       0.09094233       0.42413539       0.03248882      -0.09565791
V       13.73125553       1.40629911      10.44589233       0.05992922      -0.16685900      -0.03411302      -0.03464884      -0.22719882       0.14065355
V       12.30910397       2.94981766      12.02290440      -0.61321517      -0.32152958      -0.65962762      -0.88631415      -0.73278731      -0.75719643
V       13.81385994       4.41666842      10.38803196      -0.59604501      -0.16360521       0.25432363      -0.81757104       0.04551862       0.46546075
V        9.50139809       5.68719673       5.70684099      -0.29799372      -0.49263579      -0.19565171      -0.35334063      -0.38710457      -0.02877274
V        9.23121166       5.94850159       2.85754132       0.09238354      -0.12181509      -0.34320362       0.34678942      -0.40062803      -0.23164591
V        9.19037056       8.90636349       2.90163779       0.26222051      -0.07077882      -0.22257083       0.29545689       0.33733651      -0.18330714
V        7.79513550       7.32365942       4.41632032      -0.56914194       0.59930740      -0.80182474      -0.25024897       0.80155587      -0.60631609
Cr       9.31321430       8.85941601       5.74686384       0.07795040       0.20374581       0.47107962      -0.02302521       0.16761029       0.13676554
V       10.86550140       7.50815535       4.34153366      -0.43826408      -0.76782883      -0.76169399      -0.52101535      -0.41792458      -0.40204024
V       10.77621651       7.39739180       1.26778138      -0.27787228      -0.04961746       0.30894648      -0.09114002      -0.23196290      -0.06301858
V        7.64023781       7.34424448       1.37388766       0.33573548       0.17522303       0.29811776       0.08871406       0.25808266       0.15019557
V       12.29913139       5.80877018       5.66910458       0.17061196       0.22140618       0.97428221       0.27851826       0.06931505       1.00706077
V       12.22367668       5.84088039       2.76388216       0.09103692       0.76714046       0.37649079       0.04108211       0.36133599       0.76029652
V       13.73266697       7.51772356       4.34736681       0.51607196      -0.72008589      -0.17119762       0.69768804      -0.52721071       0.16885549
V       12.34062099       8.83397579       2.81152558      -0.50146688       0.95907444       0.00685448      -0.67097825       1.00592828      -0.21248898
Cr      12.29922485       8.90897846       5.83935642       0.29696050       0.29683461       0.25634358      -0.03283583      -0.03381691       0.20623504
V       13.84754181       7.36166859       1.41425848      -0.63503855       0.12187802      -0.79159094      -0.56549883       0.46851492      -0.75847077
V        8.13712502       6.84876823       7.04456329       0.12257305      -0.22751513      -0.59244185      -0.03283584       0.17156407      -0.49483514
V        9.50017452       8.50520515       8.50437641       0.46666732       0.09671333      -0.16623779       0.76563931      -0.22142920       0.05630589
V        9.15538120       5.72835779       8.93353462       0.78035814       0.02572095       0.19886972       0.67304540       0.08230382       0.01064912
Cr      10.75006199       7.46925211      10.39311218      -0.20677149      -0.61166864       0.24192206       0.20001273      -0.60941577       0.38266334
V        7.62907982       7.26976871      10.53762341       0.20765771       0.41897251      -0.62458844      -0.11445492      -0.30791968      -0.18786637
Cr      10.97115612       7.15617371       7.20822001      -0.20456351       0.54808838       0.16660027      -0.25918016       1.06644666       0.38632935
Cr       9.19088745       5.92229033      11.84904003       0.24553545      -0.30670461       0.44950805       0.23323701      -0.26461905       0.33375818
V        9.15908813       8.77755451      11.98809433       0.46415044       0.63930109       0.45156516       0.81819570       0.82885116       0.48759767
Cr      13.81451893       7.35612726       7.48640347      -0.25232211       0.52875350      -0.41537832      -0.20315894       0.39137799      -0.62534493
V       12.25463009       8.97441292       8.85952950       0.51000404      -0.47243637       0.48093477       0.36498874      -0.72692096       0.58162779
Cr      12.29132175       5.85010052      11.89156532      -0.28380703       0.61801368      -0.05872632      -0.44211850       0.73306656      -0.08004257
V       12.17531872       5.91862106       8.89049149       0.59312678      -0.46767871       0.58871199       0.51836598       0.11252423       0.23963818
V       13.85986710       7.51286888      10.52614498      -0.94005271      -0.64754841      -0.91856949      -1.30722690      -0.64225429      -0.56785595
Cr      12.23223877       8.89318275      11.89372921       0.14721479       0.16271158       0.20417447      -0.24338047       0.32485226       0.00555520
122
Lattice="15.100251138 0.0 0.0 0.0 9.06015068278 0.0 0.0 0.0 12.0802009104" Properties=species:S:1:pos:R:3:force:R:3:forces:R:3 config_type=di-sia_aa parent_id=99999999 generation=9 step=11 variance=0.4714517891407013 loss=0.4714517891407013 energy=-1096.6429544201496 pbc="T T T"
V        1.59699667       1.35640895       4.41330194      -0.36587870       0.14676284       0.26096739       0.05030894      -0.01298797       0.02754252
V        0.06591427       2.93510389       2.91706753      -0.12586468       0.03433973       0.00158128      -0.00852583       0.00187540       0.04265463
V        1.68608606       1.40203011       1.41817594      -0.17162178      -0.48986580      -0.15185871      -0.98342359      -0.38151512       0.17972088
V        0.11928889       2.90029359       5.91396523       0.14078846      -0.38299034       0.37673514      -0.19611113       0.03483240      -0.17736903
V        1.56750834       4.31067371       4.44148731       0.18610748       0.50910618      -0.20399171       0.55716401       0.84319353       0.25697899
V        2.98340559       2.87134743       2.93254614       0.70828261      -0.45906649       0.22706643       0.66256487       0.03866590       0.26780114
Cr       3.19100428       2.86295080       5.78825092       0.05657618       0.09440748       0.61230082      -0.20908210       0.08719599       0.74740428
V        1.54433036       4.42521381       1.42136288      -0.54401163      -0.17960151      -0.14616453       0.00295135       0.05099110      -0.08433549
Cr       6.22410440       2.79660368       5.84554958      -0.36085173       0.22342113      -0.22283418      -0.08877829       0.06453601       0.01497647
V        4.65294218       1.32438278       4.34610558       0.02737985       0.41010477       0.20490755       0.08453630       0.36684030       0.24205503
V        4.54278469       4.45655012       4.40336704       0.58339221      -0.41310784       0.35790154       0.51242918      -0.61316633       0.38828120
V        5.81669331       3.35095096       0.32569155      -0.11384728       0.34992072       0.13414051       0.03036996      -0.13278139      -0.01184333
V        4.48808622       1.38673031       1.40933418       0.23210293      -0.18252576       0.81849694       0.92381018      -0.08290583       0.62346065
V        6.17144585       2.89598107       2.97069955       0.45117081       0.29384156      -0.04562392      -0.10278388      -0.02457021      -0.04376166
V        4.39963770       4.58808947       1.50979769       0.74370913      -0.14887329       0.26904106       0.98241293      -0.20388329       0.14564195
V        1.60729563       1.35820186       7.33712435       0.26131946       0.19149700       0.17343776       0.75092757       0.57208824       0.56329530
V        1.63610911       1.43305421      10.38608265      -0.38663856       0.05685454       0.11397554      -0.02987578      -0.02108803       0.02914284
Cr       1.57193768       4.45873880      10.47928047       0.13727101       0.13583651      -0.88998385       0.25251701      -0.03906875      -0.47266519
V        0.17653923       2.97542405       8.94195843       0.31980143      -0.24163957      -0.15673077       0.04865184      -0.27141356       0.12618423
V        0.14112486       2.80576229      12.02328396      -0.04399461       0.71374445      -0.32658813      -0.18949954       0.64520127      -0.62620324
Cr       3.21182275       2.88206053       8.70672989       0.06444441       0.29233852       0.57134766      -0.38777447       0.29011053       0.76447284
V        3.02043939       3.01880598      12.11577320      -0.26497230      -0.51969992      -0.18017283      -0.65102381       0.00350686      -0.70723981
V        1.69752729       4.41827631       7.35894966      -0.33373474      -0.86551173      -0.01778362      -0.03108765       0.08820604       0.05186414
Cr       6.18963242       2.92554569       8.77412891      -0.21533768       0.38259120      -0.20219532       0.06757970      -0.04824730       0.08046743
V        4.34623814       1.67815328      10.77651882       0.04606738      -0.13662944      -0.72564571       0.49301952      -0.38806367      -0.93008220
Cr       5.76084280       0.36388195       9.55718899      -0.49768628      -0.44644425      -0.38881894      -0.55698240       0.17387956      -0.25935030
V        4.51842499       4.46094322      10.45457554       0.84579426      -0.11976945      -0.04409547       0.56190050       0.30946323      -0.50157142
V        7.02545881       2.04988670      11.11954594       0.20467637      -0.14500744       0.22315949      -0.07346004      -0.05084361      -0.14471593
V        4.63923788       4.37659693       7.35835695      -0.10299785       0.12087042       0.03390648      -0.00761841      -0.03584949       0.09846412
V        4.72511005       1.26021552       7.36089468      -0.30070613       0.17801101      -0.04141129       0.24946788       0.74777389      -0.15242310
V        1.73313832       7.40079880       1.34774899      -0.57124921       0.12971358       0.14083290      -1.00901794       0.43576729       0.55019587
Cr       1.64727747       7.40205956       4.44227219      -0.04927341       0.67327227      -0.21320187      -0.07282098      -0.07541189       0.24525844
V        3.11180210       5.99358892       2.96183014       0.20405911      -0.09021369       0.21004877      -0.05007907       0.01318635       0.01653703
Cr       0.18210745       8.93636990       2.70508647      -0.18632050       0.38292717       0.85834491       0.19381571       0.01457854       1.02694905
Cr       0.13320947       5.92245865       5.91040182      -0.14441438       0.10345326       0.09956149       0.00710537       0.06945243      -0.02492087
V        0.12497050       5.90366459       2.95414209       0.34691665       0.15178821       0.04977573       0.06061586       0.02673376      -0.03962183
V        3.14843321       8.88860607       6.04299116       0.55589946      -0.01661753      -0.54239576      -0.16064796      -0.14366312      -1.37495708
Cr       3.12210608       5.91642380       5.91028929       0.32578007      -0.09082330       0.10070624      -0.02741855      -0.04403589       0.02233073
V        3.09665656       8.90494442       3.00755286      -0.10598743       0.13893450      -0.97835700       0.38388798      -0.35561928      -0.33012885
V        0.14171454       8.99413681       6.01285982       0.47736408      -0.29318210      -0.35958845      -0.00375364      -0.63991386      -0.66305554
Cr       4.64556980       7.43573713       4.40195990      -0.04421467      -0.45298984       0.14297403       0.04451594      -0.03746035       0.07630505
V        6.11440229       5.87977695       5.88669634      -0.29879373      -0.13218156      -0.01322526       0.02858014      -0.00593524       0.05056570
V        6.25758982       6.00373316       2.99455619      -0.26575646      -0.45900853      -0.40911198      -0.80579829      -0.31011051      -0.40059340
Cr       4.58611059       7.39226341       1.48511446       0.32157921       1.01157008      -0.15940702       0.67802715       0.59150887      -0.18250737
Cr       6.11464453       8.83870888       2.75818682       0.08684101       0.49760766       0.75684886      -0.14611506       0.36429426       0.91516727
V        6.24479055       8.90016174       5.69995070       0.28334670      -0.47145504       0.42007941      -0.26009625      -0.30858338       0.03392716
V        1.58083880       7.38713217       7.47719812       0.22318832       0.07601629       0.24258350       0.61714184      -0.24311030      -0.06717847
V        1.66555643       7.44006920      10.43391800       0.18149125       0.19376652      -0.03438093      -0.07345965      -0.03549391      -0.04541808
V        0.17230974       8.94664574      11.93956089       0.38191199       0.68472969       0.59474338       0.03856617       0.02901972      -0.06591430
V        0.07597249       5.94817495      11.91067410       0.32316610       0.07623081       0.35646339       0.87870598      -0.34604979       0.16145620
V        0.10753537       5.90267420       8.96672344       0.16851355       0.36920163       0.02375374       0.29854280      -0.02658673      -0.03709345
V        3.19367957       8.95786381       8.94224644      -0.72101319      -0.12608125      -0.00867691      -0.58300018      -0.07215483       0.03527937
V        0.20217146       8.99940395       8.97370625      -0.06218527      -0.20815084      -0.08097632      -0.38006529      -0.54225791      -0.25369546
Cr       3.11226082       5.87324142       8.95453930       0.33808416       0.28430536      -0.15309352       0.02750604      -0.00001733       0.00461029
V        3.06817865       8.94680882      11.99898434       0.53043149      -0.43887057       0.01169525       0.39358491      -0.14949575       0.04698098
V        3.08003712       5.99646902      11.96118069      -0.37731737      -0.18181957       0.00480132      -0.15708114      -0.28283221      -0.16071369
V        6.11664915       8.84571838      12.08923817      -0.22597368      -0.38196772       0.23595474      -0.04236303       0.10823843       0.03401048
V        6.86009645       8.17816830       8.13855457      -0.47738432       0.42370668       0.10106515      -0.02219988      -0.01158666       0.08875561
Cr       6.20617199       5.91472244       8.96594715      -0.42451744      -0.54657170      -0.26559470      -0.40275833      -0.87930745      -0.00585499
V        4.57656193       7.42702675      10.57986450       0.14362377       0.08193017      -0.40977597       0.60458314      -0.43499309      -0.78229254
V        4.59494591       7.42395973       7.36747694       0.08852217      -0.14537783       0.23978172      -0.42820328      -0.49401197       0.53647792
Cr       6.10790920       5.98182869      11.97655582      -0.08912998      -0.06012612      -0.02735899      -0.03971149       0.01507832      -0.00082351
Cr      10.73731709       1.32178259       1.30451524       0.60077273       0.21397182       0.47973564       0.15613678       0.10575789      -0.05493550
Cr       7.68422985       1.34075296       4.33959961       0.01397884      -0.10314918      -0.28563602       0.00025879      -0.00569668      -0.02201926
V        9.26464748       2.85806489       2.86189699      -0.20333036       0.07187285      -0.62561429      -0.00339927      -0.02362839       0.00296594
V        9.21869469       2.77492785       5.80813456       0.60718731       0.47678775       0.25825239      -0.03770242       0.04554956       0.00242173
V        7.67925167       1.44620872       1.50293064      -0.20627133      -0.38632234       0.07867734      -0.08331754      -0.53729236      -0.04446908
Cr      10.71971607       4.31476641       4.27030849      -0.13751938       0.00984185       0.24014408       0.13968837       0.03422401       0.01962700
V       10.81331635       1.38729131       4.41672182      -0.48956981      -0.76480001      -0.55770738      -0.44975114      -0.91227788      -0.49507985
V       10.72846317       4.54530525       1.24012458       0.16002877      -0.56169914       0.52305544      -0.19877684      -0.82654905       0.12485310
V        7.67204714       4.31539679       4.35408688      -0.15720929      -0.02716086       0.15456123       0.09694938       0.04376419       0.02251450
V        7.80407381       4.48150110       1.40690851      -0.55542950      -0.46068566       0.26292232      -0.22374807      -0.04779998      -0.14741799
V       12.30849743       2.84188461       2.75832176      -0.28499339       0.45366599       0.15812236      -0.92555749       0.46903718       0.63016897
V       13.65622234       4.48605251       1.34325206       0.57068625      -0.87971677       0.10238262       0.65056199      -0.23201786       0.13199416
V       13.77846527       1.30424142       1.35114765      -0.09987881      -0.28539337       0.10084127      -0.05734655       0.11761653      -0.01287977
V       12.18688297       2.76498079       5.87958479       0.40802588       0.58628757       0.19605796       0.75364912       1.12108791      -0.41114792
Cr      13.73652935       4.40146208       4.37319994      -0.49697074      -0.60335110      -0.25066359      -0.04593987       0.00617233       0.05856909
V       13.74933147       1.47560406       4.31227589       0.19050144      -0.65817263       0.02238316       0.19641215      -0.97330207       0.46036601
V       10.87589169       1.37394583       7.39412117      -0.67754629      -0.10541594      -0.41258002      -0.98871469      -0.48098236      -0.60318828
Cr       9.12385082       2.81215572       8.90924263       0.65719973      -0.27156425       0.14251064       0.45817575       0.25947332      -0.13018009
V        7.73436785       1.36175251       7.28119802      -0.50959902      -0.19928314       0.06368787      -0.00397614      -0.11048430       0.09397688
Cr       7.79523039       4.17113495       7.27728415      -0.36268432      -0.22514473       0.56875242      -0.73559833       0.04426307       0.68377393
V        8.35136032       0.71533352       9.89311695      -0.23189620       0.61760264      -0.30347686      -0.16829100       0.28476220      -0.21727507
V        9.25381088       2.85337782      11.89878941      -0.10284714       0.26637580       0.22787990       0.72634983      -0.21730170       0.16451678
Cr      10.84067917       1.41364706      10.32229519      -0.05040405      -0.23883826       0.30137553       0.04366450      -0.33356512       0.66514492
V       10.76738453       4.16765833       7.34902954      -0.48397329       0.27257317      -0.03256060      -0.11769415       0.60437262       0.46354908
V       10.72888184       4.40190697      10.43528843       0.18844055       0.05568121      -0.63059327      -0.05305059       0.00425649      -0.04891548
V        7.58593702       4.37527943      10.49739456      -0.02267244       0.88240902      -0.46483258       0.42785940       0.81078565      -0.40439242
V       13.76084042       1.38221157       7.40949869      -0.35579214       0.25190929      -0.13503623      -0.03483022      -0.05102721       0.08294046
V       12.25209999       2.83601761       9.00755978       0.21762209       0.32331312      -0.81482883      -0.03057258       0.17690495      -0.31549069
V       13.72486401       4.40765953       7.42985868       0.07258204      -0.07280410       0.09094233       0.24005924      -0.12853122      -0.21824095
V       13.71163177       1.35694015      10.44299889       0.05992922      -0.16685900      -0.03411302       0.20064792       0.21838431       0.29700747
V       12.32359123       3.00280404      12.07554626      -0.61321517      -0.32152958      -0.65962762      -1.08714604      -1.21575391      -1.15676761
V       13.72314262       4.38353825      10.47791004      -0.59604501      -0.16360521       0.25432363      -0.04826989       0.44654548      -0.11899732
V        9.43536758       5.64494467       5.69760990      -0.29799372      -0.49263579      -0.19565171       0.01064340      -0.06253789      -0.01949999
V        9.27601719       5.91938734       2.82725811       0.09238354      -0.12181509      -0.34320362      -0.15520254      -0.24999325       0.07573637
V        9.12131786       8.93897724       2.91013598       0.26222051      -0.07077882      -0.22257083       0.80481213       0.19595975      -0.22029817
V        7.82856226       7.34863186       4.41458464      -0.56914194       0.59930740      -0.80182474      -0.38608822       0.50429308      -0.64559567
Cr       9.29914474       8.87322521       5.76522732       0.07795040       0.20374581       0.47107962       0.00954860       0.03531379      -0.05045278
V       10.87085152       7.49395370       4.31150818      -0.43826408      -0.76782883      -0.76169399      -0.58012885      -0.25098902      -0.12732929
V       10.74559307       7.35091257       1.27406824      -0.27787228      -0.04961746       0.30894648       0.08312748       0.45444822      -0.11738908
V        7.64252043       7.37276363       1.39499927       0.33573548       0.17522303       0.29811776       0.02653565      -0.00649986       0.01084097
V       12.32573795       5.80447531       5.67012548       0.17061196       0.22140618       0.97428221      -0.08773884       0.01101263       0.94847167
V       12.19508648       5.90133953       2.75158238       0.09103692       0.76714046       0.37649079       0.38196206       0.07633257       0.88016319
V       13.72467232       7.49963284       4.32082081       0.51607196      -0.72008589      -0.17119762       0.87353510      -0.26419061       0.38325679
V       12.40954494       8.88904285       2.82487011      -0.50146688       0.95907444       0.00685448      -1.15377569       0.56733632      -0.31311151
Cr      12.30079937       8.89681911       5.84786558       0.29696050       0.29683461       0.25634358      -0.02607998      -0.03908933       0.03436143
V       13.90470219       7.39594603       1.41001785      -0.63503855       0.12187802      -0.79159094      -0.88123196       0.35896453      -0.67631173
V        8.14377594       6.86769104       7.00688124       0.12257305      -0.22751513      -0.59244185      -0.05635083       0.03046019      -0.00730695
V        9.59263992       8.46434307       8.49422073       0.46666732       0.09671333      -0.16623779      -0.05647869       0.11445275       0.07433268
V        9.23099613       5.70413256       8.94315338       0.78035814       0.02572095       0.19886972       0.28085965       0.20380555      -0.26469439
Cr      10.78001785       7.50031614      10.38302231      -0.20677149      -0.61166864       0.24192206       0.05429348      -0.70343947       0.57140517
V        7.61730289       7.23142195      10.51531601       0.20765771       0.41897251      -0.62458844       0.06203496       0.06529455       0.02204729
Cr      10.99132538       7.14126635       7.18573475      -0.20456351       0.54808838       0.16660027      -0.35536969       0.85033721       0.29410172
Cr       9.20313835       5.89349461      11.88301468       0.24553545      -0.30670461       0.44950805       0.06123493       0.03388433       0.03776031
V        9.13972759       8.75352669      12.01842213       0.46415044       0.63930109       0.45156516       0.72796744       0.93869722       0.16575660
Cr      13.75682640       7.37481403       7.51728344      -0.25232211       0.52875350      -0.41537832       0.25696707       0.25044709      -0.73709601
V       12.23002720       8.97724152       8.86022568       0.51000404      -0.47243637       0.48093477       0.67206562      -0.72581500       0.63389683
Cr      12.30385399       5.88594866      11.91830349      -0.28380703       0.61801368      -0.05872632      -0.55263507       0.60078490      -0.27901688
V       12.25270653       5.91754007       8.89807701       0.59312678      -0.46767871       0.58871199      -0.01343682       0.02308693       0.05631867
V       13.85307980       7.44403028      10.49703693      -0.94005271      -0.64754841      -0.91856949      -1.16405380       0.09853917      -0.14986944
Cr      12.16993809       8.96281433      11.89966202       0.14721479       0.16271158       0.20417447       0.06107828      -0.04884696      -0.03235622
122
Lattice="15.100251138 0.0 0.0 0.0 9.06015068278 0.0 0.0 0.0 12.0802009104" Properties=species:S:1:pos:R:3:force:R:3:forces:R:3 config_type=di-sia_aa parent_id=99999999 generation=9 step=22 variance=0.638420581817627 loss=0.638420581817627 energy=-1096.268562429716 pbc="T T T"
V        1.61069965       1.34434116       4.41132450      -0.36587870       0.14676284       0.26096739      -0.00412135       0.03288175      -0.02229599
V        0.06161257       2.93348932       2.91245675      -0.12586468       0.03433973       0.00158128       0.00850616       0.05098086       0.04345829
V        1.66374183       1.43224585       1.42067730      -0.17162178      -0.48986580      -0.15185871      -0.77724266      -0.64800251       0.10608300
V        0.09988435       2.89644861       5.89264441       0.14078846      -0.38299034       0.37673514      -0.00919126      -0.00208007      -0.03400697
V        1.55294955       4.29429626       4.44647837       0.18610748       0.50910618      -0.20399171       0.63788247       0.95025843       0.15419814
V        2.98494339       2.84418058       2.93976569       0.70828261      -0.45906649       0.22706643       0.65886605       0.25383383       0.19000229
Cr       3.20404816       2.84465241       5.76757288       0.05657618       0.09440748       0.61230082      -0.27949494       0.20575070       0.92005557
V        1.54245865       4.42607546       1.41679204      -0.54401163      -0.17960151      -0.14616453       0.02625405       0.01648372      -0.02263955
Cr       6.22563076       2.81177425       5.86081171      -0.36085173       0.22342113      -0.22283418      -0.08842872       0.00534109      -0.06615354
V        4.67648363       1.37327182       4.38648319       0.02737985       0.41010477       0.20490755      -0.09894763       0.00627792      -0.01976752
V        4.55086565       4.46585560       4.39376450       0.58339221      -0.41310784       0.35790154       0.48052979      -0.67838228       0.46214852
V        5.81679916       3.33175278       0.31268492      -0.11384728       0.34992072       0.13414051       0.00538243       0.00190514       0.08874738
V        4.49247789       1.40687633       1.36727846       0.23210293      -0.18252576       0.81849694       0.88234997      -0.29050356       1.00254238
V        6.17173338       2.89068437       2.97259045       0.45117081       0.29384156      -0.04562392      -0.03558990       0.03717282      -0.04970349
V        4.40743923       4.58486843       1.51458132       0.74370913      -0.14887329       0.26904106       0.91869295      -0.22255728       0.05190899
V        1.61809695       1.33714950       7.34784889       0.26131946       0.19149700       0.17343776       0.67082155       0.71934652       0.52206820
V        1.64008403       1.42998672      10.39596367      -0.38663856       0.05685454       0.11397554      -0.01545947       0.00554871       0.02277786
Cr       1.58747256       4.49299335      10.46413612       0.13727101       0.13583651      -0.88998385       0.18432181      -0.30945307      -0.41641754
V        0.18692981       2.93860078       8.97022152       0.31980143      -0.24163957      -0.15673077      -0.03151816       0.00570512      -0.01968927
V        0.14316736       2.80321598      12.02884769      -0.04399461       0.71374445      -0.32658813      -0.19990310       0.65889138      -0.67879480
Cr       3.20983148       2.89381886       8.68592167       0.06444441       0.29233852       0.57134766      -0.41659915       0.19048902       0.93112278
V        3.01200199       3.02949023      12.12223625      -0.26497230      -0.51969992      -0.18017283      -0.59730029      -0.04300682      -0.76539350
V        1.67712855       4.41485548       7.36019659      -0.33373474      -0.86551173      -0.01778362       0.09860267       0.06743495       0.01098525
Cr       6.19260025       2.92114329       8.78454685      -0.21533768       0.38259120      -0.20219532       0.08377826      -0.04537058       0.02182202
V        4.37658548       1.66624892      10.79374409       0.04606738      -0.13662944      -0.72564571       0.22100088      -0.34281892      -1.15916705
Cr       5.78416967       0.35702518       9.52999115      -0.49768628      -0.44644425      -0.38881894      -0.72300828       0.12573349      -0.11852758
V        4.52033186       4.45919228      10.46270657       0.84579426      -0.11976945      -0.04409547       0.54300314       0.32004344      -0.53381652
V        7.02502823       2.05185628      11.10055065       0.20467637      -0.14500744       0.22315949      -0.00627149      -0.07250814      -0.01919110
V        4.63604641       4.36739397       7.37596130      -0.10299785       0.12087042       0.03390648       0.02290829       0.09270144      -0.08499997
V        4.68820429       1.23483980       7.38360357      -0.30070613       0.17801101      -0.04141129       0.45316428       0.89759207      -0.16620784
V        1.72491229       7.40368748       1.34500647      -0.57124921       0.12971358       0.14083290      -0.92299879       0.36484575       0.49422336
Cr       1.64613092       7.41203785       4.45790863      -0.04927341       0.67327227      -0.21320187      -0.06442094      -0.15938869       0.13193469
V        3.10529971       5.99946833       2.96398807       0.20405911      -0.09021369       0.21004877      -0.00535784      -0.00521707       0.02331397
Cr       0.15866974       8.94771767       2.70693183      -0.18632050       0.38292717       0.85834491       0.31026921      -0.02004830       1.03374481
Cr       0.14055412       5.91307545       5.91312122      -0.14441438       0.10345326       0.09956149      -0.04727396       0.11306658      -0.05048567
V        0.13148499       5.90356827       2.94487929       0.34691665       0.15178821       0.04977573      -0.02763928       0.03691467       0.01273820
V        3.17396832       8.88204098       6.06403208       0.55589946      -0.01661753      -0.54239576      -0.34538668      -0.10724022      -1.52068079
Cr       3.11796618       5.91791153       5.91320753       0.32578007      -0.09082330       0.10070624       0.01458890      -0.04697061       0.00184656
V        3.08762479       8.89727402       2.95936012      -0.10598743       0.13893450      -0.97835700       0.56082439      -0.16719471       0.02398587
V        0.16677424       9.02560425       6.01360798       0.47736408      -0.29318210      -0.35958845      -0.16055250      -0.81911385      -0.66763401
Cr       4.65165710       7.43562317       4.41156578      -0.04421467      -0.45298984       0.14297403      -0.01884269      -0.02054726       0.00616585
V        6.12245321       5.86705399       5.89054823      -0.29879373      -0.13218156      -0.01322526       0.00723079       0.01498980       0.03421751
V        6.26270294       6.02593470       2.98848772      -0.26575646      -0.45900853      -0.40911198      -0.76064289      -0.44849360      -0.28164846
Cr       4.61761045       7.40135336       1.50930619       0.32157921       1.01157008      -0.15940702       0.42832181       0.54253101      -0.38621104
Cr       6.12718153       8.81480503       2.76761270       0.08684101       0.49760766       0.75684886      -0.20501904       0.60538298       0.85521692
V        6.19309473       8.85042858       5.70837545       0.28334670      -0.47145504       0.42007941       0.02687766       0.02821923       0.01138019
V        1.57898712       7.40414333       7.49216270       0.22318832       0.07601629       0.24258350       0.66105258      -0.32000613      -0.16597801
V        1.66223061       7.44052792      10.42198944       0.18149125       0.19376652      -0.03438093      -0.02121880      -0.01840081       0.03183493
V        0.17936325       8.95689487      11.93747044       0.38191199       0.68472969       0.59474338       0.00169764      -0.01919532       0.00725612
V        0.08497501       5.93920517      11.90822411       0.32316610       0.07623081       0.35646339       0.87911320      -0.22887717       0.20922169
V        0.14430341       5.90346146       8.97397518       0.16851355       0.36920163       0.02375374      -0.00779600      -0.02744363      -0.05981779
V        3.15499401       8.98148918       8.96644974      -0.72101319      -0.12608125      -0.00867691      -0.33831912      -0.19805305      -0.00256432
V        0.21214914       8.98187733       8.96237087      -0.06218527      -0.20815084      -0.08097632      -0.50926995      -0.44053853      -0.14957827
Cr       3.12120986       5.88513947       8.94884872       0.33808416       0.28430536      -0.15309352      -0.00635225      -0.03097695       0.00704135
V        3.10456204       8.93058014      12.00117970       0.53043149      -0.43887057       0.01169525       0.01476311       0.00525017       0.11931168
V        3.05068541       5.95780087      11.93707657      -0.37731737      -0.18181957       0.00480132       0.04782652       0.04237714       0.05637497
V        6.11316586       8.86327457      12.08537483      -0.22597368      -0.38196772       0.23595474       0.03461777      -0.02142929       0.06795324
V        6.87512875       8.15275764       8.14229393      -0.47738432       0.42370668       0.10106515      -0.00859864       0.08153901       0.04041205
Cr       6.20034170       5.93563223       8.95490074      -0.42451744      -0.54657170      -0.26559470      -0.39428517      -1.02626526       0.11246382
V        4.54893303       7.43318367      10.59232616       0.14362377       0.08193017      -0.40977597       0.79796809      -0.45607173      -0.84565377
V        4.62229204       7.45472336       7.36343288       0.08852217      -0.14537783       0.23978172      -0.67901146      -0.73678529       0.65542567
Cr       6.09873486       5.98329782      11.97499657      -0.08912998      -0.06012612      -0.02735899      -0.02089692       0.02086077       0.01280297
Cr      10.76794147       1.33623540       1.29119289       0.60077273       0.21397182       0.47973564      -0.01014818       0.04858479       0.05164799
Cr       7.68217134       1.34222782       4.34731150       0.01397884      -0.10314918      -0.28563602      -0.01056631      -0.01443497      -0.01378852
V        9.26796627       2.85831404       2.86349273      -0.20333036       0.07187285      -0.62561429       0.00359818       0.01404192      -0.02035152
V        9.21312904       2.77938223       5.80436468       0.60718731       0.47678775       0.25825239      -0.01684017      -0.03556771       0.01469923
V        7.67346382       1.43110895       1.50479341      -0.20627133      -0.38632234       0.07867734      -0.06408443      -0.46447906      -0.05256142
Cr      10.74569511       4.31227016       4.26041412      -0.13751938       0.00984185       0.24014408      -0.12140381       0.05704152       0.09253484
V       10.83395958       1.38319135       4.43453121      -0.48956981      -0.76480001      -0.55770738      -0.63385129      -0.91159600      -0.63671541
V       10.75001717       4.57155895       1.24873054       0.16002877      -0.56169914       0.52305544      -0.45377290      -1.10291290       0.04509496
V        7.68148708       4.31866312       4.35885239      -0.15720929      -0.02716086       0.15456123       0.01809741       0.01148598      -0.03464681
V        7.75993252       4.48402977       1.38591623      -0.55542950      -0.46068566       0.26292232       0.01554549      -0.05827807       0.01669603
V       12.30738544       2.81596613       2.75220394      -0.28499339       0.45366599       0.15812236      -0.91805887       0.63878429       0.69709963
V       13.65305042       4.47095680       1.33413768       0.57068625      -0.87971677       0.10238262       0.77819866      -0.12302732       0.35686910
V       13.77293587       1.31008637       1.36180127      -0.09987881      -0.28539337       0.10084127      -0.01632770       0.04467909      -0.09407765
V       12.17547226       2.75960803       5.88282394       0.40802588       0.58628757       0.19605796       0.88418686       1.21757066      -0.43303594
Cr      13.72713947       4.41988897       4.37678337      -0.49697074      -0.60335110      -0.25066359      -0.01236791      -0.07612579       0.01000137
V       13.75456238       1.48676848       4.31022501       0.19050144      -0.65817263       0.02238316       0.15566036      -1.07946992       0.47242233
V       10.87433815       1.38035834       7.37864876      -0.67754629      -0.10541594      -0.41258002      -0.98162097      -0.56252575      -0.47487283
Cr       9.15520763       2.78557658       8.90794182       0.65719973      -0.27156425       0.14251064       0.32823750       0.41343880      -0.12756611
V        7.70929193       1.34633243       7.28764248      -0.50959902      -0.19928314       0.06368787       0.01652736      -0.03827975      -0.03053797
Cr       7.77964067       4.14194345       7.28139448      -0.36268432      -0.22514473       0.56875242      -0.68525022       0.15578577       0.63955963
V        8.32385540       0.73746657       9.85544395      -0.23189620       0.61760264      -0.30347686       0.05702457      -0.00899274       0.11822667
V        9.24543381       2.85420799      11.91941547      -0.10284714       0.26637580       0.22787990       0.76351798      -0.18934631       0.09407005
Cr      10.81866932       1.38244379      10.36084843      -0.05040405      -0.23883826       0.30137553       0.20519704      -0.08966199       0.40257281
V       10.75655174       4.17179346       7.34551239      -0.48397329       0.27257317      -0.03256060      -0.00429672       0.55836850       0.48933935
V       10.71766567       4.40464497      10.43118954       0.18844055       0.05568121      -0.63059327       0.05711769      -0.00973127      -0.01256829
V        7.57502985       4.36134243      10.50739288      -0.02267244       0.88240902      -0.46483258       0.53791910       0.98480797      -0.49506903
V       13.76481819       1.37304318       7.41702557      -0.35579214       0.25190929      -0.13503623      -0.03351032       0.00797108       0.02969617
V       12.24939632       2.85800958       8.96547794       0.21762209       0.32331312      -0.81482883      -0.01062724      -0.01582193       0.01781275
V       13.77323914       4.39524984       7.38906622       0.07258204      -0.07280410       0.09094233      -0.00247561      -0.02656988       0.06558064
V       13.70134735       1.33834553      10.43890190       0.05992922      -0.16685900      -0.03411302       0.28488868       0.35043368       0.29146385
V       12.33232594       3.01211143      12.07829094      -0.61321517      -0.32152958      -0.65962762      -1.21620429      -1.30877948      -1.22113347
V       13.70202827       4.40971327      10.51979160      -0.59604501      -0.16360521       0.25432363       0.17408244       0.23415539      -0.52400458
V        9.42843628       5.63703823       5.70960617      -0.29799372      -0.49263579      -0.19565171       0.02974452      -0.04177738      -0.14623769
V        9.25484657       5.87990284       2.83974671       0.09238354      -0.12181509      -0.34320362      -0.04549355       0.00350761      -0.02227104
V        9.11420250       8.94326019       2.91920781       0.26222051      -0.07077882      -0.22257083       0.90252018       0.23746274      -0.28334925
V        7.85103512       7.39855194       4.41715145      -0.56914194       0.59930740      -0.80182474      -0.56667632       0.06124744      -0.62719101
Cr       9.30251789       8.88580608       5.75103903       0.07795040       0.20374581       0.47107962      -0.05728864      -0.00616271       0.02064952
V       10.84299946       7.49507999       4.30064392      -0.43826408      -0.76782883      -0.76169399      -0.43149531      -0.29060850      -0.01903232
V       10.74162483       7.35248756       1.26858497      -0.27787228      -0.04961746       0.30894648       0.09648150       0.35172796       0.02878535
V        7.64832211       7.37291670       1.39428580       0.33573548       0.17522303       0.29811776      -0.00011605      -0.03665874       0.03249837
V       12.30351162       5.80959129       5.68095636       0.17061196       0.22140618       0.97428221       0.04793724       0.00596953       0.83706492
V       12.17406654       5.90563726       2.74781775       0.09103692       0.76714046       0.37649079       0.50975192       0.08849579       0.97739238
V       13.71678543       7.50144911       4.31228733       0.51607196      -0.72008589      -0.17119762       0.85555696      -0.26643482       0.49251312
V       12.39389992       8.87510109       2.84193730      -0.50146688       0.95907444       0.00685448      -1.04650354       0.69159859      -0.38273215
Cr      12.30065823       8.89738941       5.86555433       0.29696050       0.29683461       0.25634358      -0.01960683      -0.06258914      -0.04876187
V       13.89418983       7.39569712       1.42483771      -0.63503855       0.12187802      -0.79159094      -0.79956329       0.36425567      -0.77484632
V        8.13892365       6.85831594       7.00519085       0.12257305      -0.22751513      -0.59244185       0.02098520      -0.01382761      -0.05939749
V        9.58550930       8.47227192       8.49291801       0.46666732       0.09671333      -0.16623779      -0.01817258       0.09262132       0.07822676
V        9.26706696       5.69360256       8.92191124       0.78035814       0.02572095       0.19886972       0.02093037       0.23272972      -0.12799853
Cr      10.75872421       7.52830744      10.40306187      -0.20677149      -0.61166864       0.24192206       0.13536935      -0.81360292       0.47502637
V        7.61919785       7.23161983      10.51794910       0.20765771       0.41897251      -0.62458844       0.08376875       0.01794088       0.02824354
Cr      10.97544956       7.13101101       7.16882658      -0.20456351       0.54808838       0.16660027      -0.32157293       0.88205504       0.42052788
Cr       9.19372272       5.89618301      11.88346100       0.24553545      -0.30670461       0.44950805       0.04807111       0.02633120       0.00525783
V        9.14833450       8.73388672      12.05514908       0.46415044       0.63930109       0.45156516       0.62096930       1.11057448      -0.17217514
Cr      13.71172714       7.38669538       7.51893616      -0.25232211       0.52875350      -0.41537832       0.51079148       0.15013438      -0.71078312
V       12.22544098       8.97622776       8.86115742       0.51000404      -0.47243637       0.48093477       0.60877091      -0.66690153       0.67661375
Cr      12.35244942       5.88085032      11.94790649      -0.28380703       0.61801368      -0.05872632      -0.81874967       0.65778220      -0.46064851
V       12.26796150       5.92164135       8.89385223       0.59312678      -0.46767871       0.58871199      -0.06195885       0.01195080       0.01300818
V       13.86466599       7.44181871      10.49877644      -0.94005271      -0.64754841      -0.91856949      -1.16430569       0.10722813      -0.16444382
Cr      12.19357300       8.96126080      11.89515495       0.14721479       0.16271158       0.20417447      -0.08279563      -0.04400805       0.00983962
122
Lattice="15.100251138 0.0 0.0 0.0 9.06015068278 0.0 0.0 0.0 12.0802009104" Properties=species:S:1:pos:R:3:force:R:3:forces:R:3 config_type=di-sia_aa parent_id=99999999 generation=9 step=33 variance=0.6952977180480957 loss=0.6952977180480957 energy=-1096.1057624952439 pbc="T T T"
V        1.61158335       1.34607339       4.40306425      -0.36587870       0.14676284       0.26096739       0.03226962      -0.03357237      -0.02515294
V        0.05667339       2.93881631       2.91182065      -0.12586468       0.03433973       0.00158128       0.02979882      -0.00229276      -0.01501873
V        1.66311991       1.43325472       1.41012108      -0.17162178      -0.48986580      -0.15185871      -0.76123929      -0.69894588       0.20933947
V        0.09911988       2.89344883       5.89348364       0.14078846      -0.38299034       0.37673514       0.02394552       0.04228242      -0.02179362
V        1.54248309       4.27671337       4.43703604       0.18610748       0.50910618      -0.20399171       0.71529877       1.06558001       0.22396386
V        2.99548531       2.83901262       2.93838549       0.70828261      -0.45906649       0.22706643       0.57096839       0.28172705       0.15703815
Cr       3.20831823       2.83896589       5.76376772       0.05657618       0.09440748       0.61230082      -0.32335320       0.22633037       0.98242635
V        1.54403484       4.43221426       1.41873002      -0.54401163      -0.17960151      -0.14616453       0.01876749      -0.02862117      -0.03197400
Cr       6.20305920       2.80702257       5.85219431      -0.36085173       0.22342113      -0.22283418       0.03879787       0.02984170      -0.01966804
V        4.65713406       1.37192166       4.39138365       0.02737985       0.41010477       0.20490755       0.05951620       0.02107898      -0.00996297
V        4.55765772       4.47607613       4.41659451       0.58339221      -0.41310784       0.35790154       0.44861859      -0.73635912       0.26809403
V        5.82980108       3.32351923       0.31105688      -0.11384728       0.34992072       0.13414051      -0.04734650       0.02910161       0.04875606
V        4.49446201       1.40365922       1.36208498       0.23210293      -0.18252576       0.81849694       0.90034997      -0.26278389       1.03542185
V        6.16199827       2.88929749       2.97084284       0.45117081       0.29384156      -0.04562392       0.02978310       0.02137402       0.00049835
V        4.40468359       4.58104086       1.50890577       0.74370913      -0.14887329       0.26904106       0.97257757      -0.20399508       0.10916774
V        1.63942170       1.32631874       7.34057903       0.26131946       0.19149700       0.17343776       0.52288073       0.83550310       0.58155912
V        1.63094592       1.43009198      10.40056133      -0.38663856       0.05685454       0.11397554       0.04034295      -0.01066947       0.02238314
Cr       1.58478940       4.48677301      10.44759941       0.13727101       0.13583651      -0.88998385       0.20847556      -0.30437970      -0.35159844
V        0.17865580       2.93532276       8.96518230       0.31980143      -0.24163957      -0.15673077       0.04645175       0.03501981      -0.01771194
V        0.15046720       2.78515625      12.03860569      -0.04399461       0.71374445      -0.32658813      -0.26681629       0.77508855      -0.77711648
Cr       3.20900536       2.89574981       8.69006634       0.06444441       0.29233852       0.57134766      -0.42327425       0.23853247       0.93081200
V        2.99415541       3.01986384      12.11403656      -0.26497230      -0.51969992      -0.18017283      -0.41076690       0.05303480      -0.76868242
V        1.69550371       4.43092060       7.35809803      -0.33373474      -0.86551173      -0.01778362      -0.03270989      -0.06068147      -0.01194716
Cr       6.20291805       2.91921687       8.77533245      -0.21533768       0.38259120      -0.20219532       0.04245300      -0.00175699       0.05128003
V        4.40230942       1.67356229      10.80327511       0.04606738      -0.13662944      -0.72564571       0.00310770      -0.34326810      -1.25802517
Cr       5.75758934       0.36346659       9.50844288      -0.49768628      -0.44644425      -0.38881894      -0.56534791       0.06711275       0.04225821
V        4.51972389       4.48586464      10.45453835       0.84579426      -0.11976945      -0.04409547       0.53671217       0.15840228      -0.44901294
V        7.03679371       2.04456258      11.09727383       0.20467637      -0.14500744       0.22315949      -0.04530246      -0.06253006      -0.03721006
V        4.64269447       4.39126253       7.36541700      -0.10299785       0.12087042       0.03390648      -0.01565867      -0.06502056       0.04197600
V        4.66051054       1.24852681       7.41836500      -0.30070613       0.17801101      -0.04141129       0.56540394       0.79677433      -0.35381794
V        1.72523320       7.40009975       1.31986499      -0.57124921       0.12971358       0.14083290      -0.88905162       0.38951892       0.71257246
Cr       1.64373732       7.40369701       4.47028399      -0.04927341       0.67327227      -0.21320187      -0.04736971      -0.13747124       0.02263485
V        3.10579228       6.00019789       2.96734071       0.20405911      -0.09021369       0.21004877       0.00064501      -0.00415364      -0.00947471
Cr       0.16272901       8.94861412       2.72390223      -0.18632050       0.38292717       0.85834491       0.29819331      -0.02506862       0.89018649
Cr       0.14162099       5.91880655       5.91024446      -0.14441438       0.10345326       0.09956149      -0.04733804       0.08847484      -0.05239647
V        0.12904486       5.90798378       2.94478703       0.34691665       0.15178821       0.04977573      -0.01672642      -0.01586052      -0.00333584
V        3.18308997       8.87524700       6.08106852       0.55589946      -0.01661753      -0.54239576      -0.40285897      -0.01398980      -1.67906761
Cr       3.12725019       5.92142439       5.90452099       0.32578007      -0.09082330       0.10070624      -0.04320982      -0.03118342       0.02790105
V        3.11554551       8.88996029       2.93594265      -0.10598743       0.13893450      -0.97835700       0.37750322      -0.12955230       0.15673085
V        0.18481174       9.02577114       6.01257563       0.47736408      -0.29318210      -0.35958845      -0.26247823      -0.78679979      -0.68812621
Cr       4.65409088       7.43407059       4.42323971      -0.04421467      -0.45298984       0.14297403      -0.01388860       0.00185380      -0.03073185
V        6.12302303       5.87028551       5.89150953      -0.29879373      -0.13218156      -0.01322526       0.03843506       0.00821103       0.00780441
V        6.27095938       6.04903746       2.99465132      -0.26575646      -0.45900853      -0.40911198      -0.79877633      -0.62488377      -0.27935094
Cr       4.64053488       7.41759634       1.51647878       0.32157921       1.01157008      -0.15940702       0.30225024       0.45708919      -0.43081236
Cr       6.13207769       8.79995918       2.77618074       0.08684101       0.49760766       0.75684886      -0.21964809       0.71855485       0.81120276
V        6.20198011       8.85851192       5.71179676       0.28334670      -0.47145504       0.42007941      -0.04844925       0.03495345       0.04336853
V        1.59887493       7.41594219       7.48632383       0.22318832       0.07601629       0.24258350       0.53595853      -0.48751879      -0.12376012
V        1.65282381       7.42985630      10.43297100       0.18149125       0.19376652      -0.03438093       0.02169313      -0.00394944       0.00752192
V        0.18182713       8.96083450      11.94160461       0.38191199       0.68472969       0.59474338       0.00439526      -0.02803165      -0.00308854
V        0.07260865       5.93625784      11.90896320       0.32316610       0.07623081       0.35646339       1.04402268      -0.18918371       0.19976437
V        0.14197078       5.90241385       8.96213055       0.16851355       0.36920163       0.02375374       0.02264382       0.00682842      -0.00783164
V        3.10870862       8.95251465       8.98822021      -0.72101319      -0.12608125      -0.00867691       0.00870125      -0.00288182      -0.03406968
V        0.24286427       8.98009014       8.94335938      -0.06218527      -0.20815084      -0.08097632      -0.75032723      -0.39113665      -0.01292931
Cr       3.12130547       5.87984371       8.95087719       0.33808416       0.28430536      -0.15309352      -0.00813766       0.01286893      -0.01786431
V        3.11438727       8.93248940      12.01329231       0.53043149      -0.43887057       0.01169525      -0.00643227      -0.00276163      -0.02089384
V        3.06442666       5.96453810      11.94716167      -0.37731737      -0.18181957       0.00480132      -0.03749188      -0.02178243      -0.00329578
V        6.12056255       8.87080956      12.07794094      -0.22597368      -0.38196772       0.23595474       0.03631187      -0.07968266       0.07925083
V        6.87723255       8.15221024       8.14534569      -0.47738432       0.42370668       0.10106515      -0.03483121       0.07478821       0.06321366
Cr       6.20163488       5.92556047       8.94684982      -0.42451744      -0.54657170      -0.26559470      -0.37633163      -0.94622225       0.13902339
V        4.55280161       7.42396975      10.59597111       0.14362377       0.08193017      -0.40977597       0.77506018      -0.37023371      -0.86012888
V        4.61137915       7.46102381       7.35495186       0.08852217      -0.14537783       0.23978172      -0.52617663      -0.74537516       0.78794950
Cr       6.09370804       5.99019766      11.98018551      -0.08912998      -0.06012612      -0.02735899       0.03305857      -0.01011409      -0.00430974
Cr      10.76709938       1.33924770       1.30392182       0.60077273       0.21397182       0.47973564      -0.00066803       0.02836231       0.02335292
Cr       7.68236351       1.34199548       4.34480238       0.01397884      -0.10314918      -0.28563602      -0.04905660      -0.01319814      -0.00129250
V        9.26870251       2.85754037       2.86373758      -0.20333036       0.07187285      -0.62561429      -0.00226727      -0.00598823      -0.00574770
V        9.21642208       2.77387762       5.81125784       0.60718731       0.47678775       0.25825239      -0.06040351       0.00482066      -0.03342059
V        7.67863607       1.41445470       1.49639416      -0.20627133      -0.38632234       0.07867734      -0.12565920      -0.38287729       0.03844599
Cr      10.73380852       4.32044649       4.27060223      -0.13751938       0.00984185       0.24014408      -0.02285546      -0.00735433       0.01190406
V       10.85101318       1.38918591       4.43950844      -0.48956981      -0.76480001      -0.55770738      -0.76586860      -0.97766769      -0.68957937
V       10.75527477       4.57203388       1.24706531       0.16002877      -0.56169914       0.52305544      -0.49645239      -1.12697685       0.04165837
V        7.68220615       4.31630945       4.35725355      -0.15720929      -0.02716086       0.15456123      -0.01721080      -0.01017965      -0.01326846
V        7.76212311       4.47592449       1.39652836      -0.55542950      -0.46068566       0.26292232      -0.00887356       0.01160349      -0.02444419
V       12.30616188       2.80635834       2.75412965      -0.28499339       0.45366599       0.15812236      -0.91665947       0.70451063       0.64863718
V       13.64648438       4.46651983       1.32701266       0.57068625      -0.87971677       0.10238262       0.86524093      -0.15795556       0.48975992
V       13.77041340       1.31417120       1.34983611      -0.09987881      -0.28539337       0.10084127      -0.00973261      -0.03289308       0.04842653
V       12.18600750       2.76297927       5.87182856       0.40802588       0.58628757       0.19605796       0.86826342       1.22227478      -0.33559427
Cr      13.72696209       4.41378927       4.38145685      -0.49697074      -0.60335110      -0.25066359      -0.03868942      -0.02266384      -0.00344484
V       13.75628567       1.49170852       4.30805588       0.19050144      -0.65817263       0.02238316       0.19329375      -1.13866317       0.48050839
V       10.86989975       1.37889087       7.36525011      -0.67754629      -0.10541594      -0.41258002      -0.93795556      -0.56612813      -0.40029666
Cr       9.17173386       2.81095839       8.90870285       0.65719973      -0.27156425       0.14251064       0.25023878       0.26867190      -0.12958632
V        7.71040487       1.33999717       7.28668690      -0.50959902      -0.19928314       0.06368787       0.00070565       0.00085562      -0.02721315
Cr       7.76941967       4.12080479       7.29742622      -0.36268432      -0.22514473       0.56875242      -0.59973085       0.29386842       0.55219853
V        8.33903122       0.73857641       9.86384106      -0.23189620       0.61760264      -0.30347686      -0.05438928       0.03801019       0.03210326
V        9.22945786       2.85497546      11.93214798      -0.10284714       0.26637580       0.22787990       0.88954347      -0.13000654       0.03503668
Cr      10.82204437       1.38027859      10.35784435      -0.05040405      -0.23883826       0.30137553       0.21041167      -0.04612424       0.39655048
V       10.77755356       4.16536665       7.34139013      -0.48397329       0.27257317      -0.03256060      -0.16300385       0.66236764       0.49602342
V       10.71938419       4.40403652      10.41993904       0.18844055       0.05568121      -0.63059327       0.02996024       0.03433635       0.02320373
V        7.57492876       4.36150169      10.51267338      -0.02267244       0.88240902      -0.46483258       0.55796075       1.02998495      -0.53423864
V       13.76252842       1.37866879       7.42139530      -0.35579214       0.25190929      -0.13503623       0.01295905      -0.05792309      -0.00910326
V       12.24283600       2.85640740       8.96931934       0.21762209       0.32331312      -0.81482883       0.05166180      -0.01067860       0.02061634
V       13.77063465       4.39403868       7.39898586       0.07258204      -0.07280410       0.09094233       0.02354110      -0.00642626      -0.00157845
V       13.71185303       1.33567810      10.44023228       0.05992922      -0.16685900      -0.03411302       0.20550184       0.30901656       0.25111163
V       12.34535313       3.00402379      12.06277466      -0.61321517      -0.32152958      -0.65962762      -1.29399109      -1.24920070      -1.13893557
V       13.70796299       4.42158461      10.52265930      -0.59604501      -0.16360521       0.25432363       0.16481727       0.09878843      -0.56187713
V        9.42672825       5.62924385       5.69822645      -0.29799372      -0.49263579      -0.19565171      -0.01076921       0.01097932       0.00246163
V        9.25367928       5.88337278       2.83252883       0.09238354      -0.12181509      -0.34320362       0.00350665      -0.01459938       0.00988135
V        9.10594654       8.94215679       2.91149449       0.26222051      -0.07077882      -0.22257083       0.99409544       0.26974037      -0.22096330
V        7.86442280       7.40703106       4.41926956      -0.56914194       0.59930740      -0.80182474      -0.63788813       0.01628250      -0.62747425
Cr       9.29908466       8.88947773       5.75243282       0.07795040       0.20374581       0.47107962      -0.05423072       0.01179436       0.01532353
V       10.83948135       7.49615049       4.29890490      -0.43826408      -0.76782883      -0.76169399      -0.44591838      -0.32188904      -0.00286257
V       10.74510384       7.37070847       1.25578082      -0.27787228      -0.04961746       0.30894648       0.07730326       0.13221441       0.18092047
V        7.65454912       7.36821651       1.39728820       0.33573548       0.17522303       0.29811776      -0.03475547      -0.02361382      -0.01518593
V       12.28827763       5.82533264       5.68766212       0.17061196       0.22140618       0.97428221       0.14144766      -0.05952172       0.81098413
V       12.17268944       5.89970350       2.75608730       0.09103692       0.76714046       0.37649079       0.47618592       0.11475261       0.91833371
V       13.71404934       7.50543356       4.29296684       0.51607196      -0.72008589      -0.17119762       0.91732705      -0.34115881       0.69214314
V       12.39332390       8.85271835       2.85921192      -0.50146688       0.95907444       0.00685448      -1.03301728       0.90701389      -0.54775226
Cr      12.30001068       8.89580631       5.85856962       0.29696050       0.29683461       0.25634358      -0.01556805      -0.01791890       0.00945892
V       13.88704681       7.39312840       1.42676151      -0.63503855       0.12187802      -0.79159094      -0.73578513       0.38116425      -0.76225805
V        8.13134956       6.85320282       6.99947309       0.12257305      -0.22751513      -0.59244185       0.02905098      -0.03077505      -0.10362822
V        9.57267380       8.48682594       8.50554657       0.46666732       0.09671333      -0.16623779       0.04174291       0.03476240      -0.04192680
V        9.27197838       5.73210478       8.89289856       0.78035814       0.02572095       0.19886972       0.01685360      -0.01302289       0.07125825
Cr      10.75627995       7.54065895      10.40770054      -0.20677149      -0.61166864       0.24192206       0.12253591      -0.84812158       0.43183535
V        7.62878513       7.23674870      10.51784992       0.20765771       0.41897251      -0.62458844       0.00820598      -0.03915455       0.00858452
Cr      10.95319939       7.14233065       7.16637325      -0.20456351       0.54808838       0.16660027      -0.22842348       0.87616384       0.48542795
Cr       9.19352245       5.89264441      11.87753677       0.24553545      -0.30670461       0.44950805       0.05166942       0.03444631       0.00757789
V        9.13078403       8.71961594      12.06080818       0.46415044       0.63930109       0.45156516       0.67772615       1.19717288      -0.20668334
Cr      13.69479084       7.39668703       7.53303909      -0.25232211       0.52875350      -0.41537832       0.57939529       0.08184495      -0.78323781
V       12.21269035       8.96349144       8.85887814       0.51000404      -0.47243637       0.48093477       0.70101684      -0.53295302       0.68321800
Cr      12.37846947       5.88101196      11.97719193      -0.28380703       0.61801368      -0.05872632      -0.98764884       0.64362514      -0.64845639
V       12.27181816       5.92000103       8.89626884       0.59312678      -0.46767871       0.58871199      -0.07773919       0.06541865      -0.00868059
V       13.88026428       7.45440960      10.50810051      -0.94005271      -0.64754841      -0.91856949      -1.23775220       0.03299604      -0.24362099
Cr      12.18548584       8.94955254      11.90371799       0.14721479       0.16271158       0.20417447       0.01674817       0.06057759      -0.03853268
122
Lattice="15.100251138 0.0 0.0 0.0 9.06015068278 0.0 0.0 0.0 12.0802009104" Properties=species:S:1:pos:R:3:force:R:3:forces:R:3 config_type=di-sia_aa parent_id=99999999 generation=9 step=44 variance=0.7497040629386902 loss=0.7497040629386902 energy=-1095.9146590466316 pbc="T T T"
V        1.61887884       1.33519137       4.40162373      -0.36587870       0.14676284       0.26096739       0.00569680       0.03687041      -0.02383836
V        0.05699651       2.93568444       2.91040730      -0.12586468       0.03433973       0.00158128      -0.00939584       0.02707754       0.00447614
V        1.65357530       1.44441164       1.40790308      -0.17162178      -0.48986580      -0.15185871      -0.65478456      -0.79812455       0.27358413
V        0.10321576       2.89798355       5.88929987       0.14078846      -0.38299034       0.37673514      -0.01163956      -0.04581283       0.00819639
V        1.53189206       4.26753712       4.44794559       0.18610748       0.50910618      -0.20399171       0.78476560       1.15203083       0.12071750
V        2.99185228       2.85065293       2.93642926       0.70828261      -0.45906649       0.22706643       0.59552217       0.17941211       0.17737553
Cr       3.20454121       2.84436154       5.76082897       0.05657618       0.09440748       0.61230082      -0.32169548       0.17161702       1.01269424
V        1.54216444       4.43449497       1.42346418      -0.54401163      -0.17960151      -0.14616453       0.00914448      -0.01900170      -0.05843933
Cr       6.19829082       2.80496669       5.85197783      -0.36085173       0.22342113      -0.22283418       0.05173754       0.00866493      -0.01566954
V        4.66155291       1.37379098       4.39967728       0.02737985       0.41010477       0.20490755       0.05321139       0.04186755      -0.00851621
V        4.56604815       4.47235727       4.43138933       0.58339221      -0.41310784       0.35790154       0.39800629      -0.69539213       0.17674224
V        5.82816792       3.31934571       0.31213698      -0.11384728       0.34992072       0.13414051       0.02618816      -0.00605305       0.01137444
V        4.49590635       1.39795303       1.36074746       0.23210293      -0.18252576       0.81849694       0.83569449      -0.20621634       1.01770723
V        6.16222143       2.88973594       2.96484232       0.45117081       0.29384156      -0.04562392       0.02756080       0.00378215       0.04808928
V        4.40560198       4.57476711       1.51355660       0.74370913      -0.14887329       0.26904106       0.96218717      -0.09886490       0.06967671
V        1.64150083       1.30740619       7.34540033       0.26131946       0.19149700       0.17343776       0.48714304       1.03934848       0.56798786
V        1.63143063       1.43316197      10.40476418      -0.38663856       0.05685454       0.11397554       0.02613447      -0.02858750      -0.00775128
Cr       1.58558309       4.47445536      10.42970943       0.13727101       0.13583651      -0.88998385       0.21882474      -0.23733795      -0.26719761
V        0.18341251       2.93580651       8.95794392       0.31980143      -0.24163957      -0.15673077      -0.01477694      -0.00445860       0.01720959
V        0.15329516       2.77323818      12.04763412      -0.04399461       0.71374445      -0.32658813      -0.34122378       0.86734575      -0.83125675
Cr       3.20131087       2.91372371       8.67850494       0.06444441       0.29233852       0.57134766      -0.39616704       0.10884776       1.04709291
V        2.97702718       3.01738906      12.10462284      -0.26497230      -0.51969992      -0.18017283      -0.20394289       0.05601437      -0.75771731
V        1.69531810       4.42476177       7.35138416      -0.33373474      -0.86551173      -0.01778362      -0.04644099       0.01067486      -0.00018474
Cr       6.21154976       2.93168378       8.77857018      -0.21533768       0.38259120      -0.20219532      -0.00726373      -0.04148419       0.05963823
V        4.43100071       1.66636503      10.79415512       0.04606738      -0.13662944      -0.72564571      -0.33326805      -0.15089826      -1.13054979
Cr       5.68591356       0.34828806       9.50518703      -0.49768628      -0.44644425      -0.38881894       0.00693865       0.12033673       0.08715205
V        4.52899837       4.49000406      10.45799637       0.84579426      -0.11976945      -0.04409547       0.45892569       0.17735980      -0.47036561
V        7.04214096       2.03241801      11.09440899       0.20467637      -0.14500744       0.22315949      -0.13432205       0.02227720       0.00197661
V        4.63671637       4.38434505       7.36400366      -0.10299785       0.12087042       0.03390648       0.02796055       0.01815484       0.04442089
V        4.65274096       1.23734462       7.43934107      -0.30070613       0.17801101      -0.04141129       0.59043372       0.97059673      -0.50033391
V        1.72187257       7.40288973       1.31243265      -0.57124921       0.12971358       0.14083290      -0.82698268       0.36924943       0.80348843
Cr       1.64474308       7.39523983       4.46282101      -0.04927341       0.67327227      -0.21320187      -0.04612673      -0.09984830       0.08012992
V        3.10713887       6.00225401       2.96793818       0.20405911      -0.09021369       0.21004877       0.00219975      -0.02185788       0.00571035
Cr       0.14830193       8.96304989       2.74244356      -0.18632050       0.38292717       0.85834491       0.44377375      -0.09713934       0.79093164
Cr       0.13751161       5.93050957       5.90454388      -0.14441438       0.10345326       0.09956149      -0.01477624       0.02752502      -0.02813463
V        0.12682319       5.90576696       2.94315195       0.34691665       0.15178821       0.04977573       0.00074920       0.00894650       0.00527174
V        3.18161702       8.88355637       6.09951496       0.55589946      -0.01661753      -0.54239576      -0.35916758      -0.07874878      -1.83396375
Cr       3.12353873       5.92723989       5.90782833       0.32578007      -0.09082330       0.10070624      -0.01531803      -0.07065672       0.00214879
V        3.14845538       8.87442303       2.94948506      -0.10598743       0.13893450      -0.97835700       0.12255354       0.03726228       0.05229710
V        0.19830394       9.03230572       6.02319288       0.47736408      -0.29318210      -0.35958845      -0.34852707      -0.82870668      -0.75590682
Cr       4.66123486       7.42796755       4.42921543      -0.04421467      -0.45298984       0.14297403      -0.04755922       0.01905951      -0.03937358
V        6.12640524       5.86955166       5.89278793      -0.29879373      -0.13218156      -0.01322526       0.02360303      -0.01036329       0.01761324
V        6.27603483       6.05120850       3.00972557      -0.26575646      -0.45900853      -0.40911198      -0.83090186      -0.60792291      -0.38085473
Cr       4.66095114       7.47118950       1.51542974       0.32157921       1.01157008      -0.15940702       0.17466471       0.08811812      -0.36212808
Cr       6.10285521       8.78984547       2.76785946       0.08684101       0.49760766       0.75684886      -0.08154728       0.75818229       0.88862008
V        6.20406103       8.86363602       5.71569824       0.28334670      -0.47145504       0.42007941      -0.03513133      -0.00607311       0.03839024
V        1.62453425       7.42229843       7.49322414       0.22318832       0.07601629       0.24258350       0.37305272      -0.56370413      -0.15656605
V        1.65537822       7.42893314      10.43359852       0.18149125       0.19376652      -0.03438093      -0.01279499      -0.03354529       0.02774962
V        0.18591884       8.95655727      11.94676590       0.38191199       0.68472969       0.59474338      -0.02244305      -0.00143382      -0.01496206
V        0.06585154       5.92771721      11.91415501       0.32316610       0.07623081       0.35646339       1.14928138      -0.14130276       0.15247396
V        0.14963549       5.90118647       8.95947933       0.16851355       0.36920163       0.02375374      -0.02011683       0.00672822       0.00700811
V        3.10389686       8.94777679       8.98476982      -0.72101319      -0.12608125      -0.00867691      -0.01602928       0.01481567       0.05257618
V        0.24694067       8.97643375       8.93517017      -0.06218527      -0.20815084      -0.08097632      -0.80029178      -0.40300465       0.07073917
Cr       3.11859632       5.88129091       8.95225143       0.33808416       0.28430536      -0.15309352       0.01193722      -0.01940313      -0.02857750
V        3.11165404       8.93765640      12.01178837       0.53043149      -0.43887057       0.01169525       0.01189856       0.01390438      -0.00375189
V        3.06823754       5.96686745      11.94921207      -0.37731737      -0.18181957       0.00480132      -0.03201139      -0.01739483      -0.00921135
V        6.11935568       8.86536217      12.06755829      -0.22597368      -0.38196772       0.23595474       0.05762288      -0.02851753       0.08805885
V        6.86636305       8.16774368       8.16249561      -0.47738432       0.42370668       0.10106515       0.08317812      -0.07759416      -0.08415316
Cr       6.18820429       5.92819214       8.94114494      -0.42451744      -0.54657170      -0.26559470      -0.32017756      -0.94908333       0.18238375
V        4.55565786       7.42995310      10.60130215       0.14362377       0.08193017      -0.40977597       0.69592208      -0.49762642      -0.84937257
V        4.60879993       7.47921181       7.35996246       0.08852217      -0.14537783       0.23978172      -0.48475868      -0.88062990       0.78211159
Cr       6.09968615       5.99091721      11.98055172      -0.08912998      -0.06012612      -0.02735899       0.01180401      -0.01682298       0.00109730
Cr      10.76218319       1.34713399       1.31808150       0.60077273       0.21397182       0.47973564       0.02229046      -0.01956026      -0.03880128
Cr       7.67204332       1.33756256       4.34731913       0.01397884      -0.10314918      -0.28563602      -0.02841917       0.02424013      -0.01452732
V        9.26751041       2.85568023       2.86032200      -0.20333036       0.07187285      -0.62561429       0.00053081      -0.01006437       0.01291976
V        9.21246815       2.77019191       5.80630636       0.60718731       0.47678775       0.25825239      -0.02875200       0.00460211      -0.01514971
V        7.68305635       1.39574075       1.50095713      -0.20627133      -0.38632234       0.07867734      -0.19805133      -0.28736672      -0.00572427
Cr      10.72516918       4.31086731       4.25892305      -0.13751938       0.00984185       0.24014408       0.05088957       0.04888522       0.08315481
V       10.86186981       1.39801788       4.44551420      -0.48956981      -0.76480001      -0.55770738      -0.84029883      -1.06853259      -0.74497378
V       10.75495625       4.55627155       1.24326932       0.16002877      -0.56169914       0.52305544      -0.53421521      -1.02995706       0.09793550
V        7.68862104       4.31600714       4.35060215      -0.15720929      -0.02716086       0.15456123      -0.05758316      -0.04296529       0.02669986
V        7.76359081       4.48077679       1.38959789      -0.55542950      -0.46068566       0.26292232      -0.02586956      -0.01119438       0.03272298
V       12.30951309       2.80429029       2.75597382      -0.28499339       0.45366599       0.15812236      -0.96122408       0.74352586       0.62590373
V       13.63386154       4.48142147       1.32938325       0.57068625      -0.87971677       0.10238262       1.01994407      -0.39164707       0.47919965
V       13.76849651       1.31401706       1.35149312      -0.09987881      -0.28539337       0.10084127      -0.00144292      -0.03169875       0.03852558
V       12.19853878       2.76344800       5.87448215       0.40802588       0.58628757       0.19605796       0.80062509       1.19484460      -0.33984047
Cr      13.72084713       4.41621637       4.38338280      -0.49697074      -0.60335110      -0.25066359      -0.01270147      -0.01824489      -0.02152271
V       13.75111103       1.49212635       4.30758095       0.19050144      -0.65817263       0.02238316       0.28637967      -1.13407516       0.50678039
V       10.85991096       1.36686420       7.35530996      -0.67754629      -0.10541594      -0.41258002      -0.84706783      -0.46168980      -0.33768639
Cr       9.20970440       2.85784078       8.89610577       0.65719973      -0.27156425       0.14251064       0.02164463      -0.02609028      -0.03097050
V        7.70627594       1.34334862       7.28996563      -0.50959902      -0.19928314       0.06368787       0.00002922      -0.01589816      -0.04417235
Cr       7.76470709       4.09592772       7.30769539      -0.36268432      -0.22514473       0.56875242      -0.55097914       0.48571929       0.49538535
V        8.34176350       0.74752599       9.86322308      -0.23189620       0.61760264      -0.30347686       0.00880024       0.02110447      -0.08487835
V        9.21563339       2.85116410      11.95587349      -0.10284714       0.26637580       0.22787990       0.97412765      -0.07708912      -0.07573616
Cr      10.83299923       1.38315928      10.38825417      -0.05040405      -0.23883826       0.30137553       0.15775333      -0.06938855       0.25029191
V       10.78440094       4.16006708       7.32998657      -0.48397329       0.27257317      -0.03256060      -0.18246536       0.72374052       0.58598888
V       10.72454739       4.41188288      10.42338467       0.18844055       0.05568121      -0.63059327       0.00512015      -0.00295529      -0.00625267
V        7.55601740       4.37008142      10.51582336      -0.02267244       0.88240902      -0.46483258       0.65658468       0.98890793      -0.54352707
V       13.76387024       1.37555718       7.42299223      -0.35579214       0.25190929      -0.13503623       0.00643349      -0.06292182      -0.01660983
V       12.25056171       2.84883714       8.96934605       0.21762209       0.32331312      -0.81482883      -0.01584383       0.00888413       0.01841663
V       13.77628040       4.40079927       7.39291334       0.07258204      -0.07280410       0.09094233      -0.00603596      -0.02161824       0.03609049
V       13.70297337       1.32981551      10.44652843       0.05992922      -0.16685900      -0.03411302       0.28373259       0.31683889       0.19767869
V       12.34143925       3.00449562      12.04585552      -0.61321517      -0.32152958      -0.65962762      -1.28558767      -1.28920889      -1.02301025
V       13.69857693       4.41683102      10.52697086      -0.59604501      -0.16360521       0.25432363       0.29865435       0.09453952      -0.61964214
V        9.42764759       5.62088585       5.68937922      -0.29799372      -0.49263579      -0.19565171      -0.00364846       0.04562047       0.06352757
V        9.25132561       5.88516235       2.83842516       0.09238354      -0.12181509      -0.34320362       0.04972681      -0.06357770      -0.08415480
V        9.09591675       8.94706154       2.90622020       0.26222051      -0.07077882      -0.22257083       1.06411159       0.21271937      -0.16761184
V        7.87935257       7.40841150       4.41999054      -0.56914194       0.59930740      -0.80182474      -0.75992030       0.01427842      -0.59325063
Cr       9.29517174       8.89395905       5.75139809       0.07795040       0.20374581       0.47107962      -0.03879241       0.00164560       0.02040952
V       10.82879829       7.48649406       4.28457594      -0.43826408      -0.76782883      -0.76169399      -0.31522560      -0.25102317       0.09605136
V       10.75515270       7.37924862       1.28558290      -0.27787228      -0.04961746       0.30894648       0.02004069       0.04512018      -0.03285323
V        7.64788008       7.36411142       1.39633965       0.33573548       0.17522303       0.29811776       0.01680971      -0.03800261      -0.00127306
V       12.29562855       5.83424568       5.70028162       0.17061196       0.22140618       0.97428221       0.04664481      -0.04378038       0.70367920
V       12.17718697       5.89209223       2.73634529       0.09103692       0.76714046       0.37649079       0.37820101       0.18208569       1.14220738
V       13.71760750       7.51880503       4.27359343       0.51607196      -0.72008589      -0.17119762       0.89940566      -0.45097932       0.86957920
V       12.40389061       8.83720970       2.85663366      -0.50146688       0.95907444       0.00685448      -1.16331685       1.05636382      -0.52326030
Cr      12.30061340       8.89770317       5.86052847       0.29696050       0.29683461       0.25634358      -0.04132788      -0.02302068      -0.00676164
V       13.87868404       7.38643646       1.42832828      -0.63503855       0.12187802      -0.79159094      -0.62766874       0.45266843      -0.79703474
V        8.12572765       6.85582495       6.99052811       0.12257305      -0.22751513      -0.59244185      -0.04130373       0.02309712       0.04874369
V        9.56711483       8.49878693       8.49807930       0.46666732       0.09671333      -0.16623779      -0.05996691       0.01956231       0.09041205
V        9.26830673       5.74375391       8.90123749       0.78035814       0.02572095       0.19886972       0.03546701      -0.03208419       0.00762309
Cr      10.77005959       7.53212595      10.39348984      -0.20677149      -0.61166864       0.24192206       0.04078892      -0.79903054       0.51618695
V        7.62887859       7.23287916      10.51326942       0.20765771       0.41897251      -0.62458844      -0.01685095      -0.00561335       0.02581712
Cr      10.93505859       7.15784836       7.17373705      -0.20456351       0.54808838       0.16660027      -0.15021732       0.79997939       0.41585860
Cr       9.20537090       5.89800453      11.88138771       0.24553545      -0.30670461       0.44950805      -0.00765391       0.01845682      -0.00176318
V        9.11703873       8.69405651      12.06799984       0.46415044       0.63930109       0.45156516       0.76780951       1.26620770      -0.27564251
Cr      13.68203163       7.39067698       7.53632212      -0.25232211       0.52875350      -0.41537832       0.66205436       0.11007173      -0.80520028
V       12.19620419       8.94037247       8.85135269       0.51000404      -0.47243637       0.48093477       0.80579984      -0.37887222       0.73302001
Cr      12.40138721       5.87661695      11.99993229      -0.28380703       0.61801368      -0.05872632      -1.19885039       0.70981455      -0.84541529
V       12.26609993       5.93064022       8.89820862       0.59312678      -0.46767871       0.58871199      -0.02017682      -0.02108486      -0.02105351
V       13.88199615       7.45305538      10.51725006      -0.94005271      -0.64754841      -0.91856949      -1.21461618       0.02741221      -0.31184116
Cr      12.19990730       8.96176434      11.89903927       0.14721479       0.16271158       0.20417447      -0.08305918      -0.03415943       0.03319612
122
Lattice="15.100251138 0.0 0.0 0.0 9.06015068278 0.0 0.0 0.0 12.0802009104" Properties=species:S:1:pos:R:3:force:R:3:forces:R:3 config_type=di-sia_aa parent_id=99999999 generation=9 step=55 variance=0.7963691353797913 loss=0.7963691353797913 energy=-1095.7448846902882 pbc="T T T"
V        1.62087989       1.33715999       4.40332985      -0.36587870       0.14676284       0.26096739       0.00689440       0.01565748      -0.01720516
V        0.05181743       2.93992925       2.90785289      -0.12586468       0.03433973       0.00158128       0.02523375      -0.00949191       0.01501691
V        1.65491712       1.43703592       1.41174912      -0.17162178      -0.48986580      -0.15185871      -0.66498423      -0.74738252       0.29128361
V        0.10020985       2.88862276       5.88918066       0.14078846      -0.38299034       0.37673514       0.02056622       0.03504458      -0.00209470
V        1.52414012       4.26384306       4.44917870       0.18610748       0.50910618      -0.20399171       0.81646842       1.18199432       0.12195050
V        2.99314666       2.85377979       2.94386697       0.70828261      -0.45906649       0.22706643       0.58265203       0.14965121       0.09222373
Cr       3.20312619       2.84089684       5.76185369       0.05657618       0.09440748       0.61230082      -0.31075072       0.18548489       1.00706172
V        1.54257143       4.43795872       1.41992557      -0.54401163      -0.17960151      -0.14616453       0.00881402      -0.02904510      -0.02134502
Cr       6.20195198       2.80850482       5.85614014      -0.36085173       0.22342113      -0.22283418       0.04675400      -0.02684535      -0.02658096
V        4.66838169       1.37831223       4.40018034       0.02737985       0.41010477       0.20490755       0.01951121       0.01661809       0.02942621
V        4.57296991       4.45742846       4.44379187       0.58339221      -0.41310784       0.35790154       0.36219043      -0.60706395       0.11347093
V        5.83325243       3.31379509       0.30883557      -0.11384728       0.34992072       0.13414051      -0.02518949       0.04415330       0.06020683
V        4.50107574       1.39230406       1.36085427       0.23210293      -0.18252576       0.81849694       0.77578801      -0.13505839       0.99816728
V        6.16963196       2.88847327       2.96280885       0.45117081       0.29384156      -0.04562392       0.00295656      -0.03228667       0.05906745
V        4.40818691       4.57144022       1.51615691       0.74370913      -0.14887329       0.26904106       0.97994465      -0.05710353       0.05546356
V        1.65351939       1.30910671       7.34008503       0.26131946       0.19149700       0.17343776       0.40237123       1.07147408       0.63825852
V        1.63355625       1.43126190      10.40333271      -0.38663856       0.05685454       0.11397554       0.01422753       0.00204304       0.00676965
Cr       1.61437976       4.45198870      10.39431190       0.13727101       0.13583651      -0.88998385       0.04431583      -0.10877022      -0.09773462
V        0.17960966       2.93258643       8.95529270       0.31980143      -0.24163957      -0.15673077       0.01234671      -0.00630028      -0.00589616
V        0.14883779       2.77574658      12.05772114      -0.04399461       0.71374445      -0.32658813      -0.29428691       0.81978858      -0.89730632
Cr       3.19642639       2.93036318       8.66738415       0.06444441       0.29233852       0.57134766      -0.34935206      -0.01068282       1.12130105
V        2.96376586       3.02921414      12.09875393      -0.26497230      -0.51969992      -0.18017283      -0.07964085      -0.03861706      -0.71437395
V        1.69547045       4.42533541       7.34642172      -0.33373474      -0.86551173      -0.01778362      -0.05727328       0.01087996      -0.01589266
Cr       6.21345806       2.93026304       8.79436779      -0.21533768       0.38259120      -0.20219532      -0.00231233      -0.02069675      -0.02774637
V        4.44667435       1.67114758      10.80134296       0.04606738      -0.13662944      -0.72564571      -0.46620175      -0.15103804      -1.21106708
Cr       5.69292307       0.34594545       9.49275589      -0.49768628      -0.44644425      -0.38881894      -0.02712190       0.06941377       0.11952609
V        4.53002644       4.50676584      10.45066452       0.84579426      -0.11976945      -0.04409547       0.46249300       0.10570519      -0.43381536
V        7.03097677       2.03249645      11.08692741       0.20467637      -0.14500744       0.22315949       0.08101042      -0.02344818       0.02450400
V        4.63862085       4.39343929       7.37231398      -0.10299785       0.12087042       0.03390648       0.04252113       0.01035898       0.00758511
V        4.65240765       1.23701894       7.43267298      -0.30070613       0.17801101      -0.04141129       0.62937212       1.03691387      -0.39931244
V        1.71683550       7.39713430       1.31424773      -0.57124921       0.12971358       0.14083290      -0.74836749       0.44245493       0.82763529
Cr       1.64020181       7.38315773       4.47277498      -0.04927341       0.67327227      -0.21320187      -0.01862309      -0.05065503       0.03722268
V        3.10984755       6.00515127       2.97074699       0.20405911      -0.09021369       0.21004877      -0.00019970      -0.03862014      -0.00053024
Cr       0.14784434       8.96285343       2.76419234      -0.18632050       0.38292717       0.85834491       0.46890008      -0.08634957       0.67320728
Cr       0.14804158       5.93976879       5.89911366      -0.14441438       0.10345326       0.09956149      -0.06072419      -0.00384191      -0.01675279
V        0.12663445       5.90174770       2.94215608       0.34691665       0.15178821       0.04977573       0.00186652       0.01579648       0.00492658
V        3.19171524       8.87793827       6.12345362       0.55589946      -0.01661753      -0.54239576      -0.42735860      -0.02589230      -2.02671003
Cr       3.12638950       5.92532396       5.90485287       0.32578007      -0.09082330       0.10070624      -0.04257440      -0.04526698       0.00327665
V        3.16705418       8.88046551       2.95114493      -0.10598743       0.13893450      -0.97835700      -0.03581276      -0.02635886       0.00581710
V        0.20116252       9.04196167       6.02615404       0.47736408      -0.29318210      -0.35958845      -0.33374929      -0.89618385      -0.76747751
Cr       4.65414095       7.43391085       4.41528273      -0.04421467      -0.45298984       0.14297403       0.01896368      -0.04106548       0.02894714
V        6.13189745       5.86311150       5.89746809      -0.29879373      -0.13218156      -0.01322526      -0.01809236       0.01875929      -0.00365376
V        6.27503061       6.04714251       3.02750087      -0.26575646      -0.45900853      -0.40911198      -0.84171021      -0.57637721      -0.50685227
Cr       4.67995834       7.48955488       1.48090398       0.32157921       1.01157008      -0.15940702       0.01072109      -0.05546238      -0.08608534
Cr       6.07067871       8.78032589       2.77054286       0.08684101       0.49760766       0.75684886       0.09342804       0.77361250       0.88171643
V        6.19070101       8.85504723       5.73050404       0.28334670      -0.47145504       0.42007941       0.04985763       0.02814527      -0.07268605
V        1.63707900       7.42947149       7.49879456       0.22318832       0.07601629       0.24258350       0.29007393      -0.61599112      -0.14876734
V        1.65413356       7.41963720      10.44050789       0.18149125       0.19376652      -0.03438093      -0.00604022       0.03957993      -0.00480252
V        0.18406495       8.96051502      11.95252037       0.38191199       0.68472969       0.59474338      -0.00110275      -0.03458491      -0.01829729
V        0.06938240       5.93122864      11.92599869       0.32316610       0.07623081       0.35646339       1.13276792      -0.21735214       0.03304792
V        0.15218708       5.89852571       8.95926666       0.16851355       0.36920163       0.02375374      -0.02315777       0.00959618       0.00162577
V        3.10635853       8.95043087       8.99770451      -0.72101319      -0.12608125      -0.00867691      -0.00081159       0.02230810       0.02703581
V        0.25489241       8.98255253       8.92960453      -0.06218527      -0.20815084      -0.08097632      -0.83211851      -0.43655294       0.11820479
Cr       3.11921787       5.88550901       8.94476128       0.33808416       0.28430536      -0.15309352       0.03159203      -0.01577235       0.00060905
V        3.11343765       8.94170380      12.00734711       0.53043149      -0.43887057       0.01169525      -0.01191946      -0.02526843       0.02646727
V        3.06871724       5.96387386      11.95224667      -0.37731737      -0.18181957       0.00480132      -0.01613761      -0.00221747      -0.01226082
V        6.12823391       8.87535191      12.06749249      -0.22597368      -0.38196772       0.23595474       0.01548689      -0.10570823       0.03474907
V        6.87725067       8.15557671       8.15592384      -0.47738432       0.42370668       0.10106515       0.02737283       0.05559332       0.03492812
Cr       6.17356873       5.92653990       8.93499088      -0.42451744      -0.54657170      -0.26559470      -0.22587028      -0.92124104       0.22663999
V        4.55322361       7.42094421      10.61889172       0.14362377       0.08193017      -0.40977597       0.72717541      -0.37660414      -0.94536036
V        4.61460304       7.49826860       7.36746788       0.08852217      -0.14537783       0.23978172      -0.50619221      -1.05421162       0.80933189
Cr       6.09797049       5.99304771      11.98229408      -0.08912998      -0.06012612      -0.02735899       0.03939442      -0.03548994      -0.00417896
Cr      10.76330185       1.35442555       1.32676923       0.60077273       0.21397182       0.47973564       0.01155229      -0.03224997      -0.03859453
Cr       7.66788292       1.34182298       4.34930038       0.01397884      -0.10314918      -0.28563602      -0.03015335       0.00149941      -0.01269528
V        9.26923180       2.85513544       2.86141777      -0.20333036       0.07187285      -0.62561429       0.00507846      -0.01657474       0.00098861
V        9.21371365       2.77380586       5.79676819       0.60718731       0.47678775       0.25825239      -0.02810246      -0.03435507       0.03192376
V        7.66221619       1.35787404       1.49953341      -0.20627133      -0.38632234       0.07867734      -0.11934692      -0.03347547      -0.01566502
Cr      10.72549343       4.32505560       4.27235556      -0.13751938       0.00984185       0.24014408       0.04238680       0.00580745       0.01970315
V       10.86052895       1.40517151       4.44712543      -0.48956981      -0.76480001      -0.55770738      -0.81525958      -1.12331963      -0.83536577
V       10.76187897       4.55573511       1.24363768       0.16002877      -0.56169914       0.52305544      -0.59347910      -1.03062534       0.08532777
V        7.69668722       4.31522751       4.35279322      -0.15720929      -0.02716086       0.15456123      -0.08320113      -0.06443450       0.02235675
V        7.76045179       4.47598648       1.39675343      -0.55542950      -0.46068566       0.26292232      -0.01494042       0.01348072      -0.00104728
V       12.31132507       2.80619764       2.74950600      -0.28499339       0.45366599       0.15812236      -0.97175908       0.72584569       0.67974156
V       13.62340069       4.48447323       1.33486211       0.57068625      -0.87971677       0.10238262       1.14734769      -0.44584417       0.40681753
V       13.76392174       1.31714702       1.35020566      -0.09987881      -0.28539337       0.10084127       0.04566764      -0.04941602       0.06746677
V       12.21295357       2.76295996       5.86722040       0.40802588       0.58628757       0.19605796       0.71328866       1.23276174      -0.30627400
Cr      13.71693134       4.41828394       4.37820673      -0.49697074      -0.60335110      -0.25066359       0.00130869      -0.01427642       0.00920341
V       13.75833130       1.49224412       4.31002665       0.19050144      -0.65817263       0.02238316       0.23678085      -1.14298439       0.46374449
V       10.86529636       1.36590767       7.32457113      -0.67754629      -0.10541594      -0.41258002      -0.88445604      -0.48562774      -0.14401320
Cr       9.21261501       2.85857463       8.88119507       0.65719973      -0.27156425       0.14251064      -0.00107510      -0.01248674       0.01873513
V        7.69705915       1.33678699       7.29562378      -0.50959902      -0.19928314       0.06368787       0.04139658       0.04073590      -0.09027241
Cr       7.76743460       4.08191824       7.31424475      -0.36268432      -0.22514473       0.56875242      -0.55454934       0.56516159       0.46190390
V        8.35315228       0.76060742       9.85211086      -0.23189620       0.61760264      -0.30347686      -0.04910115       0.03388657       0.06169237
V        9.22179413       2.87426782      11.95192051      -0.10284714       0.26637580       0.22787990       0.87963068      -0.21975595      -0.02891413
Cr      10.86767769       1.38017261      10.46069813      -0.05040405      -0.23883826       0.30137553      -0.00552676      -0.06539634      -0.08303935
V       10.78278923       4.15822792       7.31804037      -0.48397329       0.27257317      -0.03256060      -0.12849163       0.73933804       0.67006648
V       10.72274876       4.41332817      10.41685200       0.18844055       0.05568121      -0.63059327       0.03392025       0.01993675       0.01782752
V        7.55653763       4.36136246      10.51482487      -0.02267244       0.88240902      -0.46483258       0.66451669       1.06835985      -0.54849595
V       13.76219749       1.37128401       7.42439795      -0.35579214       0.25190929      -0.13503623       0.01994690      -0.02580657      -0.01692004
V       12.24737072       2.84791732       8.97751904       0.21762209       0.32331312      -0.81482883       0.00321444       0.00384267      -0.02725558
V       13.77714920       4.40267038       7.39702559       0.07258204      -0.07280410       0.09094233      -0.00990695      -0.00951072       0.01640687
V       13.70273590       1.33271635      10.44641018       0.05992922      -0.16685900      -0.03411302       0.30953810       0.28328362       0.17384021
V       12.35115623       3.01050973      12.02718449      -0.61321517      -0.32152958      -0.65962762      -1.34166837      -1.29123998      -0.90722942
V       13.69867325       4.41623068      10.52247524      -0.59604501      -0.16360521       0.25432363       0.32963195       0.13842085      -0.58634841
V        9.41643524       5.62455130       5.70611048      -0.29799372      -0.49263579      -0.19565171       0.05655111      -0.00508463      -0.03145599
V        9.25044727       5.87325525       2.83168077       0.09238354      -0.12181509      -0.34320362       0.04735353      -0.01690574      -0.02984699
V        9.08897209       8.96196651       2.90344882       0.26222051      -0.07077882      -0.22257083       1.05476630       0.07632424      -0.12057938
V        7.87742901       7.41133356       4.41365385      -0.56914194       0.59930740      -0.80182474      -0.78645647      -0.01679556      -0.50977874
Cr       9.28997993       8.89167690       5.75069952       0.07795040       0.20374581       0.47107962      -0.04354274       0.00451379      -0.00058779
V       10.79510403       7.44496775       4.28478479      -0.43826408      -0.76782883      -0.76169399      -0.05666481       0.04640005       0.05219943
V       10.76100922       7.37986374       1.28502381      -0.27787228      -0.04961746       0.30894648      -0.03387356       0.01447112       0.01722050
V        7.64161301       7.35987520       1.39729548       0.33573548       0.17522303       0.29811776       0.02067788      -0.06519705       0.00645009
V       12.29287052       5.84769201       5.71574306       0.17061196       0.22140618       0.97428221       0.04694993      -0.07586290       0.60562265
V       12.18520164       5.89506912       2.72829461       0.09103692       0.76714046       0.37649079       0.26209462       0.14332885       1.27411437
V       13.71575737       7.53551102       4.25580597       0.51607196      -0.72008589      -0.17119762       0.90156841      -0.56179100       1.03039443
V       12.41317081       8.83184910       2.85769939      -0.50146688       0.95907444       0.00685448      -1.27665949       1.08145940      -0.51069009
Cr      12.28999901       8.89603043       5.85396957       0.29696050       0.29683461       0.25634358      -0.02761581      -0.00257630      -0.00859312
V       13.87646103       7.36926270       1.42224371      -0.63503855       0.12187802      -0.79159094      -0.62498069       0.63156497      -0.74743187
V        8.12050819       6.85220289       6.99199104       0.12257305      -0.22751513      -0.59244185       0.00373685      -0.00107421       0.04312422
V        9.56062126       8.50478172       8.50104618       0.46666732       0.09671333      -0.16623779      -0.03914843       0.02339653       0.04769064
V        9.27075958       5.73700953       8.89842701       0.78035814       0.02572095       0.19886972       0.00665077       0.01247304       0.01353585
Cr      10.76159477       7.55034256      10.39464569      -0.20677149      -0.61166864       0.24192206       0.05260597      -0.87086856       0.52552640
V        7.63849020       7.24326086      10.50847912       0.20765771       0.41897251      -0.62458844      -0.07116418      -0.10145895       0.02839118
Cr      10.93101883       7.18305254       7.17563438      -0.20456351       0.54808838       0.16660027      -0.19119704       0.66836572       0.39071736
Cr       9.19476509       5.89528608      11.87889862       0.24553545      -0.30670461       0.44950805       0.02690954       0.02519765      -0.02052362
V        9.10596943       8.67705154      12.07596397       0.46415044       0.63930109       0.45156516       0.82268417       1.34987521      -0.32141837
Cr      13.67627430       7.39629841       7.53287840      -0.25232211       0.52875350      -0.41537832       0.69255841       0.09101161      -0.77680290
V       12.18212986       8.93315125       8.83368397       0.51000404      -0.47243637       0.48093477       0.93627262      -0.32008523       0.84291923
Cr      12.40549088       5.89080429      12.01984310      -0.28380703       0.61801368      -0.05872632      -1.21866941       0.62703830      -1.03424203
V       12.25759506       5.93803644       8.89577293       0.59312678      -0.46767871       0.58871199       0.04678726      -0.04559521      -0.00820082
V       13.89250374       7.45577097      10.52424812      -0.94005271      -0.64754841      -0.91856949      -1.26964998       0.02555208      -0.35458130
Cr      12.19050503       8.95889759      11.91128922       0.14721479       0.16271158       0.20417447      -0.00909116       0.01721229      -0.02067608
122
Lattice="15.100251138 0.0 0.0 0.0 9.06015068278 0.0 0.0 0.0 12.0802009104" Properties=species:S:1:pos:R:3:force:R:3:forces:R:3 config_type=di-sia_aa parent_id=99999999 generation=9 step=66 variance=0.8240004181861877 loss=0.8240004181861877 energy=-1095.693394387633 pbc="T T T"
V        1.62181449       1.33742690       4.40305614      -0.36587870       0.14676284       0.26096739       0.01031947       0.03235750       0.00240902
V        0.05091799       2.93895292       2.90686822      -0.12586468       0.03433973       0.00158128       0.02713412      -0.00033801       0.02445734
V        1.65218663       1.43708086       1.41202199      -0.17162178      -0.48986580      -0.15185871      -0.62053585      -0.73796618       0.32621646
V        0.10061523       2.88669467       5.88990927       0.14078846      -0.38299034       0.37673514       0.01342961       0.04724328      -0.01764733
V        1.51585519       4.26408863       4.44980764       0.18610748       0.50910618      -0.20399171       0.86429846       1.20064485       0.11040123
V        2.99572754       2.87460566       2.94551063       0.70828261      -0.45906649       0.22706643       0.57971925       0.03153830       0.07221863
Cr       3.20388412       2.84537721       5.75896358       0.05657618       0.09440748       0.61230082      -0.32615912       0.15784663       1.00661230
V        1.54197145       4.43843222       1.42189586      -0.54401163      -0.17960151      -0.14616453       0.01737275      -0.01438103      -0.02672227
Cr       6.20080280       2.79951286       5.84802055      -0.36085173       0.22342113      -0.22283418       0.04706734       0.00675441       0.00914593
V        4.66517782       1.37564886       4.40553904       0.02737985       0.41010477       0.20490755       0.04140610       0.04249794      -0.01364699
V        4.59612751       4.45687103       4.45592308       0.58339221      -0.41310784       0.35790154       0.23894867      -0.58596820       0.02998375
V        5.83821154       3.31269503       0.30501217      -0.11384728       0.34992072       0.13414051      -0.07151569       0.05317046       0.07334922
V        4.50220776       1.39313340       1.36813235       0.23210293      -0.18252576       0.81849694       0.73277283      -0.12339946       0.92171705
V        6.16561174       2.88221121       2.96624327       0.45117081       0.29384156      -0.04562392       0.02302112      -0.00016134       0.04088185
V        4.42102146       4.57945490       1.51710272       0.74370913      -0.14887329       0.26904106       0.92224872      -0.10236936       0.03769613
V        1.65743804       1.31126690       7.33984995       0.26131946       0.19149700       0.17343776       0.37007350       1.08519769       0.64596552
V        1.63084304       1.43369663      10.40145302      -0.38663856       0.05685454       0.11397554       0.02472898      -0.00809166       0.01014917
Cr       1.61719239       4.42640495      10.38101196       0.13727101       0.13583651      -0.88998385       0.03372678       0.03657945      -0.03155677
V        0.17647734       2.93046260       8.95149994       0.31980143      -0.24163957      -0.15673077       0.01774071      -0.00457629      -0.01045271
V        0.15651175       2.77779627      12.06209946      -0.04399461       0.71374445      -0.32658813      -0.37912318       0.81864709      -0.91728848
Cr       3.18944669       2.93558502       8.65314484       0.06444441       0.29233852       0.57134766      -0.29556847      -0.04409800       1.16879797
V        2.95091510       3.03952193      12.09385777      -0.26497230      -0.51969992      -0.18017283       0.08096328      -0.09919502      -0.68737066
V        1.69615781       4.42536402       7.34262085      -0.33373474      -0.86551173      -0.01778362      -0.07228483       0.01902739      -0.02227735
Cr       6.21904469       2.93384838       8.78201103      -0.21533768       0.38259120      -0.20219532      -0.01585626      -0.02335942       0.04861876
V        4.45329618       1.67782307      10.79183674       0.04606738      -0.13662944      -0.72564571      -0.54500544      -0.10620706      -1.12656283
Cr       5.69305182       0.35159025       9.50155354      -0.49768628      -0.44644425      -0.38881894       0.00108060       0.02301200       0.02493544
V        4.54531002       4.53100014      10.44302654       0.84579426      -0.11976945      -0.04409547       0.38381302      -0.01429303      -0.42688259
V        7.03375816       2.03109169      11.09072399       0.20467637      -0.14500744       0.22315949       0.11576909      -0.00903447      -0.03143869
V        4.64272404       4.40218258       7.37160826      -0.10299785       0.12087042       0.03390648       0.01491249      -0.01686681       0.02286632
V        4.64476442       1.23324072       7.42436314      -0.30070613       0.17801101      -0.04141129       0.70787311       1.10120249      -0.31559312
V        1.71577251       7.40716600       1.31437922      -0.57124921       0.12971358       0.14083290      -0.74518764       0.35597032       0.83739603
Cr       1.63796031       7.37795496       4.47736549      -0.04927341       0.67327227      -0.21320187       0.00549109      -0.00783055       0.01004206
V        3.11322856       5.99931192       2.96603179       0.20405911      -0.09021369       0.21004877      -0.00939146      -0.00251633       0.03310516
Cr       0.15570438       8.97026920       2.78200865      -0.18632050       0.38292717       0.85834491       0.42877159      -0.08850972       0.56903321
Cr       0.14120081       5.94375992       5.89306784      -0.14441438       0.10345326       0.09956149      -0.00685192      -0.01686711       0.01624480
V        0.12810017       5.90343475       2.94124341       0.34691665       0.15178821       0.04977573      -0.01629155       0.00828440      -0.01404252
V        3.19905305       8.88544273       6.13004017       0.55589946      -0.01661753      -0.54239576      -0.49031472      -0.09386822      -2.09911728
Cr       3.12395978       5.92794991       5.90601063       0.32578007      -0.09082330       0.10070624      -0.01694026      -0.04807875      -0.00629440
V        3.16678286       8.87345123       2.94955993      -0.10598743       0.13893450      -0.97835700      -0.01782843       0.01519538       0.02427244
V        0.19661751       9.04983330       6.03395796       0.47736408      -0.29318210      -0.35958845      -0.27713180      -0.93176329      -0.79873168
Cr       4.65568399       7.43359852       4.41509438      -0.04421467      -0.45298984       0.14297403       0.01797634      -0.01793680       0.02021099
V        6.13093281       5.86451101       5.89528894      -0.29879373      -0.13218156      -0.01322526       0.00524176       0.02308292       0.02238438
V        6.27625322       6.06085777       3.03381562      -0.26575646      -0.45900853      -0.40911198      -0.85102499      -0.68381655      -0.55570829
Cr       4.67961740       7.47140408       1.47540998       0.32157921       1.01157008      -0.15940702      -0.00324786       0.06134254      -0.03295831
Cr       6.07806587       8.79650497       2.77197719       0.08684101       0.49760766       0.75684886       0.06517210       0.69757974       0.87942553
V        6.19522381       8.86077023       5.73515177       0.28334670      -0.47145504       0.42007941       0.01966942      -0.01333317      -0.09641938
V        1.65236866       7.42553473       7.49595881       0.22318832       0.07601629       0.24258350       0.18556255      -0.58190191      -0.10089736
V        1.65739942       7.42006588      10.43972015       0.18149125       0.19376652      -0.03438093      -0.02111043       0.02292107       0.00601028
V        0.18510818       8.96167946      11.95678520       0.38191199       0.68472969       0.59474338      -0.01179596      -0.04209247      -0.02887305
V        0.07303532       5.92365551      11.93383121       0.32316610       0.07623081       0.35646339       1.09035707      -0.15143311      -0.04044437
V        0.15260497       5.89416313       8.96492577       0.16851355       0.36920163       0.02375374      -0.00932985       0.01807621      -0.01396793
V        3.10566163       8.95583725       9.00113106      -0.72101319      -0.12608125      -0.00867691       0.02305215      -0.00028571       0.02390309
V        0.25880939       8.98675728       8.92780018      -0.06218527      -0.20815084      -0.08097632      -0.83426589      -0.47048172       0.15441750
Cr       3.12052369       5.88411808       8.94489479       0.33808416       0.28430536      -0.15309352       0.03527680       0.01061473      -0.00890911
V        3.11242557       8.94273949      12.00790977       0.53043149      -0.43887057       0.01169525       0.00304448      -0.02416001       0.01560472
V        3.06734443       5.96076012      11.95043945      -0.37731737      -0.18181957       0.00480132      -0.01676672       0.01304367       0.00216511
V        6.11928320       8.86276627      12.06387997      -0.22597368      -0.38196772       0.23595474       0.04886499      -0.03041322       0.07485147
V        6.87957811       8.16355801       8.15520668      -0.47738432       0.42370668       0.10106515      -0.01910837       0.04180235       0.06421200
Cr       6.17054987       5.92659473       8.93975258      -0.42451744      -0.54657170      -0.26559470      -0.20305710      -0.90178174       0.19534251
V        4.56027365       7.41946936      10.63155556       0.14362377       0.08193017      -0.40977597       0.65699726      -0.35888946      -1.02281952
V        4.61171961       7.50034809       7.37202168       0.08852217      -0.14537783       0.23978172      -0.44629890      -1.06582642       0.81472778
Cr       6.09831381       5.98978567      11.98273945      -0.08912998      -0.06012612      -0.02735899       0.05042298      -0.01292374       0.02095792
Cr      10.76754856       1.35659885       1.32941484       0.60077273       0.21397182       0.47973564       0.00982532      -0.02569401      -0.03332383
Cr       7.66569901       1.33846641       4.34632683       0.01397884      -0.10314918      -0.28563602      -0.02176564       0.02151799       0.00428344
V        9.26990795       2.85330176       2.86134195      -0.20333036       0.07187285      -0.62561429       0.00250435      -0.02553688       0.00396712
V        9.21649456       2.77111292       5.79947853       0.60718731       0.47678775       0.25825239      -0.03557562      -0.01869997      -0.01739280
V        7.63948059       1.34908330       1.49404168      -0.20627133      -0.38632234       0.07867734      -0.00978213      -0.00390927       0.02443783
Cr      10.73149109       4.32243013       4.27271509      -0.13751938       0.00984185       0.24014408       0.02879156       0.02208914       0.03669343
V       10.86446476       1.39873600       4.44870329      -0.48956981      -0.76480001      -0.55770738      -0.83795214      -1.07012796      -0.82437086
V       10.76107121       4.55525112       1.24682784       0.16002877      -0.56169914       0.52305544      -0.58620185      -1.06668246       0.06085822
V        7.69704294       4.31284428       4.35486698      -0.15720929      -0.02716086       0.15456123      -0.06222341      -0.06211239       0.01902044
V        7.75914955       4.47703075       1.40236342      -0.55542950      -0.46068566       0.26292232      -0.02076237       0.02059106      -0.01152002
V       12.30592442       2.80692744       2.75393081      -0.28499339       0.45366599       0.15812236      -0.93370903       0.71409702       0.64823735
V       13.61141109       4.48864460       1.33419979       0.57068625      -0.87971677       0.10238262       1.31899071      -0.51940709       0.40198582
V       13.76546097       1.31698573       1.35544717      -0.09987881      -0.28539337       0.10084127       0.04944870      -0.03484006       0.05225625
V       12.22490597       2.76297593       5.86718941       0.40802588       0.58628757       0.19605796       0.61944950       1.23365450      -0.31842917
Cr      13.70984364       4.41794062       4.37922001      -0.49697074      -0.60335110      -0.25066359       0.03599281      -0.00057612       0.00344846
V       13.76032543       1.48880661       4.30713320       0.19050144      -0.65817263       0.02238316       0.25395393      -1.10205758       0.50157088
V       10.85761642       1.36876810       7.31599569      -0.67754629      -0.10541594      -0.41258002      -0.82382149      -0.52226365      -0.07166827
Cr       9.20678329       2.86898637       8.88475800       0.65719973      -0.27156425       0.14251064       0.03227659      -0.06148589       0.00236427
V        7.70173931       1.33972681       7.29380226      -0.50959902      -0.19928314       0.06368787       0.01843399       0.00826208      -0.07323375
Cr       7.76717329       4.06740570       7.32202101      -0.36268432      -0.22514473       0.56875242      -0.54192913       0.67420125       0.43539795
V        8.35529232       0.75790602       9.85992718      -0.23189620       0.61760264      -0.30347686      -0.03086673       0.04723936       0.01663344
V        9.22703743       2.88628340      11.97011280      -0.10284714       0.26637580       0.22787990       0.81251019      -0.27284878      -0.12957832
Cr      10.87052917       1.37595618      10.44097900      -0.05040405      -0.23883826       0.30137553      -0.00404604      -0.01851476       0.01540867
V       10.77890015       4.15417099       7.31343794      -0.48397329       0.27257317      -0.03256060      -0.07627983       0.80810702       0.69682407
V       10.72830868       4.41979313      10.41458130       0.18844055       0.05568121      -0.63059327       0.01349719      -0.01469234       0.03187671
V        7.55304289       4.37018442      10.51091099      -0.02267244       0.88240902      -0.46483258       0.68577474       0.99931335      -0.52420616
V       13.76430893       1.36419666       7.42366695      -0.35579214       0.25190929      -0.13503623      -0.00267003       0.03811508      -0.00044014
V       12.25128937       2.84668589       8.96855354       0.21762209       0.32331312      -0.81482883      -0.01551656       0.00729397       0.00370984
V       13.77533054       4.40564013       7.39463711       0.07258204      -0.07280410       0.09094233       0.01157122      -0.03107162       0.04110402
V       13.71135616       1.33816803      10.45204353       0.05992922      -0.16685900      -0.03411302       0.24315399       0.24855930       0.14716527
V       12.35951424       3.01509809      12.02770042      -0.61321517      -0.32152958      -0.65962762      -1.41162086      -1.32764828      -0.92657471
V       13.68409061       4.42165041      10.52189350      -0.59604501      -0.16360521       0.25432363       0.47256470       0.09841108      -0.59355736
V        9.42025757       5.62594271       5.69852972      -0.29799372      -0.49263579      -0.19565171       0.01311992      -0.00374952       0.00407297
V        9.25989819       5.86716843       2.82629180       0.09238354      -0.12181509      -0.34320362      -0.01831590       0.03909306       0.02141194
V        9.08721161       8.97473240       2.90642643       0.26222051      -0.07077882      -0.22257083       1.04197764      -0.00437329      -0.15117541
V        7.86373615       7.40984964       4.40017271      -0.56914194       0.59930740      -0.80182474      -0.67748189       0.02214583      -0.40719646
Cr       9.27970409       8.89238262       5.74860430       0.07795040       0.20374581       0.47107962      -0.02744670      -0.00301358      -0.00122353
V       10.78677273       7.44888735       4.28549910      -0.43826408      -0.76782883      -0.76169399       0.01598499      -0.00699906       0.01930724
V       10.75691509       7.38158131       1.28983748      -0.27787228      -0.04961746       0.30894648      -0.00741671       0.00314062       0.01299814
V        7.64479780       7.35969400       1.40137529       0.33573548       0.17522303       0.29811776      -0.00862051      -0.04694476      -0.02044869
V       12.29381847       5.84894800       5.74269342       0.17061196       0.22140618       0.97428221       0.01849265      -0.01256180       0.42085060
V       12.20170689       5.88346052       2.71017861       0.09103692       0.76714046       0.37649079       0.09053683       0.25962412       1.48045588
V       13.71493626       7.55926991       4.23125648       0.51607196      -0.72008589      -0.17119762       0.92370307      -0.75880665       1.24948382
V       12.41577148       8.82520103       2.86538410      -0.50146688       0.95907444       0.00685448      -1.36051321       1.17752767      -0.61934888
Cr      12.28315544       8.90040207       5.85596561       0.29696050       0.29683461       0.25634358      -0.04226884       0.00427207      -0.01763331
V       13.86917877       7.36224890       1.42210674      -0.63503855       0.12187802      -0.79159094      -0.54166800       0.67363423      -0.78934264
V        8.11456299       6.85255957       6.99026299       0.12257305      -0.22751513      -0.59244185       0.01239279      -0.05740233       0.04205453
V        9.55758667       8.50571728       8.50216770       0.46666732       0.09671333      -0.16623779      -0.04220898       0.03416325       0.04231697
V        9.27760983       5.74015999       8.90607357       0.78035814       0.02572095       0.19886972      -0.04703304       0.03392933      -0.03629305
Cr      10.73326111       7.55203867      10.42000675      -0.20677149      -0.61166864       0.24192206       0.19040275      -0.85181594       0.40309882
V        7.63309383       7.24315977      10.50983810       0.20765771       0.41897251      -0.62458844      -0.06357187      -0.09960517       0.00938879
Cr      10.91551971       7.20845318       7.16043329      -0.20456351       0.54808838       0.16660027      -0.07357214       0.50012457       0.46065378
Cr       9.19221687       5.89650536      11.87513256       0.24553545      -0.30670461       0.44950805       0.03743450       0.01955003       0.01697028
V        9.10636139       8.67213345      12.07224274       0.46415044       0.63930109       0.45156516       0.78496671       1.38148296      -0.24377553
Cr      13.66610718       7.40660095       7.56013441      -0.25232211       0.52875350      -0.41537832       0.71602464       0.03306669      -0.86407661
V       12.17929077       8.93597412       8.83819199       0.51000404      -0.47243637       0.48093477       0.88657188      -0.29710838       0.82635391
Cr      12.40423012       5.89634323      12.01722717      -0.28380703       0.61801368      -0.05872632      -1.25261497       0.61456096      -1.06080842
V       12.27121925       5.92734003       8.89129639       0.59312678      -0.46767871       0.58871199      -0.09534770       0.08010204      -0.00000009
V       13.89345264       7.46166229      10.52937698      -0.94005271      -0.64754841      -0.91856949      -1.24795699      -0.02196760      -0.33511791
Cr      12.18746185       8.95753098      11.91076565       0.14721479       0.16271158       0.20417447      -0.00191479       0.03602935      -0.00003086
122
Lattice="15.100251138 0.0 0.0 0.0 9.06015068278 0.0 0.0 0.0 12.0802009104" Properties=species:S:1:pos:R:3:force:R:3:forces:R:3 config_type=di-sia_aa parent_id=99999999 generation=9 step=77 variance=0.8468929529190063 loss=0.8468929529190063 energy=-1095.6299380691194 pbc="T T T"
V        1.62392044       1.34042430       4.40654087      -0.36587870       0.14676284       0.26096739       0.01063630       0.03031709      -0.00234312
V        0.04991798       2.93809271       2.90656424      -0.12586468       0.03433973       0.00158128       0.01020936       0.01361133       0.01880672
V        1.64585602       1.43798757       1.41225779      -0.17162178      -0.48986580      -0.15185871      -0.55955064      -0.74567878       0.36385649
V        0.09852067       2.88661075       5.88887644       0.14078846      -0.38299034       0.37673514       0.00765733       0.03190337      -0.02160097
V        1.50563085       4.26483345       4.45201778       0.18610748       0.50910618      -0.20399171       0.91345239       1.23529816       0.07396340
V        2.99605703       2.89143562       2.95056844       0.70828261      -0.45906649       0.22706643       0.59394741      -0.08964958       0.00186021
Cr       3.19890833       2.85762858       5.75237942       0.05657618       0.09440748       0.61230082      -0.30634916       0.07656139       1.03936553
V        1.54388583       4.43937540       1.42297757      -0.54401163      -0.17960151      -0.14616453       0.01972035      -0.01508887      -0.04105766
Cr       6.19877052       2.80019355       5.84693241      -0.36085173       0.22342113      -0.22283418       0.05457017       0.00237440       0.01436131
V        4.66430950       1.37672055       4.40538645       0.02737985       0.41010477       0.20490755       0.06026016       0.04850910      -0.03592448
V        4.61225319       4.44698715       4.46072865       0.58339221      -0.41310784       0.35790154       0.17818287      -0.51820874      -0.00460888
V        5.82928181       3.30862021       0.30054057      -0.11384728       0.34992072       0.13414051       0.04111306       0.05560652       0.07518615
V        4.50502825       1.38340068       1.35815728       0.23210293      -0.18252576       0.81849694       0.69834042      -0.06959542       1.02430916
V        6.16715050       2.88179469       2.96430016       0.45117081       0.29384156      -0.04562392       0.02364761      -0.01080818       0.05068461
V        4.43377638       4.58254957       1.51838160       0.74370913      -0.14887329       0.26904106       0.84705442      -0.10330567       0.03655066
V        1.66049731       1.31955838       7.34069204       0.26131946       0.19149700       0.17343776       0.32964727       1.02069521       0.63442731
V        1.63218355       1.43379879      10.40319252      -0.38663856       0.05685454       0.11397554       0.02191082      -0.01009284      -0.00114657
Cr       1.62359369       4.42491055      10.37586594       0.13727101       0.13583651      -0.88998385       0.03319844       0.02962341      -0.00381847
V        0.17841777       2.92966318       8.94945240       0.31980143      -0.24163957      -0.15673077       0.01194543       0.00452530       0.00232685
V        0.14641643       2.77475309      12.06126499      -0.04399461       0.71374445      -0.32658813      -0.28769624       0.84765840      -0.89694202
Cr       3.18037653       2.94057178       8.63810635       0.06444441       0.29233852       0.57134766      -0.22417024      -0.06966532       1.23312986
V        2.95329356       3.03645730      12.09987640      -0.26497230      -0.51969992      -0.18017283       0.04635601      -0.05014434      -0.72197717
V        1.69253635       4.42380810       7.33661413      -0.33373474      -0.86551173      -0.01778362      -0.05808055       0.04411927      -0.00327369
Cr       6.21551514       2.93427324       8.78645325      -0.21533768       0.38259120      -0.20219532       0.01176871      -0.01198448       0.01082176
V        4.46008062       1.68797159      10.79530239       0.04606738      -0.13662944      -0.72564571      -0.63234973      -0.14675897      -1.17285669
Cr       5.69024420       0.35168213       9.51019192      -0.49768628      -0.44644425      -0.38881894       0.01074400       0.04130912      -0.03634176
V        4.57064724       4.53084278      10.42498398       0.84579426      -0.11976945      -0.04409547       0.24465375       0.00863547      -0.36149150
V        7.04177904       2.03397226      11.08784103       0.20467637      -0.14500744       0.22315949       0.07453983       0.00986840       0.01500825
V        4.63942575       4.40515375       7.36729193      -0.10299785       0.12087042       0.03390648       0.03660567      -0.01249419       0.03766420
V        4.63787413       1.23988974       7.41361475      -0.30070613       0.17801101      -0.04141129       0.77889669       1.09712124      -0.22756609
V        1.71239030       7.41646338       1.31319809      -0.57124921       0.12971358       0.14083290      -0.71010160       0.28092477       0.88057220
Cr       1.62762296       7.36101866       4.48804569      -0.04927341       0.67327227      -0.21320187       0.07135209       0.09448314      -0.03282112
V        3.11561370       5.99651241       2.96720767       0.20405911      -0.09021369       0.21004877      -0.01428324       0.01724274       0.03172540
Cr       0.17683086       8.97466183       2.80907083      -0.18632050       0.38292717       0.85834491       0.29951185      -0.08596519       0.40612552
Cr       0.14981291       5.93998194       5.88909483      -0.14441438       0.10345326       0.09956149      -0.04672393       0.00154992       0.02957491
V        0.12727456       5.90288782       2.93680739       0.34691665       0.15178821       0.04977573      -0.01425986       0.00496056      -0.00076592
V        3.20535016       8.89411354       6.13258839       0.55589946      -0.01661753      -0.54239576      -0.56760609      -0.15549949      -2.12525845
Cr       3.12637591       5.92900324       5.90405655       0.32578007      -0.09082330       0.10070624      -0.03262459      -0.03891578       0.00333928
V        3.16960096       8.87502384       2.94859457      -0.10598743       0.13893450      -0.97835700      -0.01566493      -0.01902817       0.03144440
V        0.19593912       9.04985523       6.02528095       0.47736408      -0.29318210      -0.35958845      -0.25418243      -0.93055654      -0.71309465
Cr       4.65750933       7.42799091       4.41930914      -0.04421467      -0.45298984       0.14297403       0.00291024       0.01587344      -0.01031148
V        6.13463640       5.86688185       5.89969969      -0.29879373      -0.13218156      -0.01322526      -0.02497184      -0.00212886      -0.00813497
V        6.28015566       6.06434917       3.03570485      -0.26575646      -0.45900853      -0.40911198      -0.88295448      -0.76050389      -0.58377433
Cr       4.67919350       7.46454048       1.47109687       0.32157921       1.01157008      -0.15940702      -0.01327079       0.10890274       0.00594117
Cr       6.08491993       8.79079437       2.78057313       0.08684101       0.49760766       0.75684886       0.00863638       0.74758554       0.81509304
V        6.18905306       8.85263729       5.72788191       0.28334670      -0.47145504       0.42007941       0.03965055       0.04378702      -0.03634161
V        1.66212261       7.41334295       7.50481129       0.22318832       0.07601629       0.24258350       0.12835243      -0.47583088      -0.17176518
V        1.65740335       7.42072964      10.44032860       0.18149125       0.19376652      -0.03438093      -0.00716772       0.00020750       0.01466409
V        0.18350868       8.95824623      11.95686913       0.38191199       0.68472969       0.59474338      -0.00177997      -0.01322521      -0.00361857
V        0.07471578       5.92109871      11.94187355       0.32316610       0.07623081       0.35646339       1.09187162      -0.14449969      -0.10753958
V        0.15443660       5.89080095       8.96623707       0.16851355       0.36920163       0.02375374      -0.02153150       0.02242360       0.00062272
V        3.11135006       8.95442867       9.00162601      -0.72101319      -0.12608125      -0.00867691      -0.00637836       0.03668393       0.02255602
V        0.26193070       8.98213863       8.92946625      -0.06218527      -0.20815084      -0.08097632      -0.83722448      -0.43781352       0.13603595
Cr       3.12490964       5.88563204       8.94062328       0.33808416       0.28430536      -0.15309352       0.02713680       0.00066014       0.00914739
V        3.11077714       8.94188404      12.00836086       0.53043149      -0.43887057       0.01169525       0.00880944      -0.00278017       0.00973009
V        3.07283211       5.95957232      11.94856071      -0.37731737      -0.18181957       0.00480132      -0.02730021       0.00195990      -0.00523703
V        6.11832666       8.86301422      12.06284618      -0.22597368      -0.38196772       0.23595474       0.04855363      -0.02950884       0.07088050
V        6.88457441       8.16938400       8.15990734      -0.47738432       0.42370668       0.10106515      -0.07735060       0.03596562       0.03368255
Cr       6.17084217       5.93776178       8.93881130      -0.42451744      -0.54657170      -0.26559470      -0.20921570      -0.95671093       0.19972718
V        4.55790806       7.42125654      10.63364792       0.14362377       0.08193017      -0.40977597       0.66410059      -0.39383334      -1.03399825
V        4.60820580       7.50846767       7.36935759       0.08852217      -0.14537783       0.23978172      -0.39082581      -1.10273659       0.85034484
Cr       6.09983730       5.98963642      11.98732662      -0.08912998      -0.06012612      -0.02735899       0.04272636      -0.02287761       0.00209860
Cr      10.77000237       1.35565829       1.32939470       0.60077273       0.21397182       0.47973564       0.00288182      -0.02229532      -0.02414705
Cr       7.66885138       1.34483755       4.34857607       0.01397884      -0.10314918      -0.28563602      -0.04094076      -0.02194810      -0.01729628
V        9.27051258       2.85252309       2.86099505      -0.20333036       0.07187285      -0.62561429      -0.00375250      -0.00963755      -0.00083278
V        9.21595192       2.77263093       5.79411554       0.60718731       0.47678775       0.25825239      -0.04132250      -0.02665528       0.02272190
V        7.63341475       1.34854567       1.49697483      -0.20627133      -0.38632234       0.07867734       0.00601157      -0.00034036       0.00424403
Cr      10.72924519       4.31775570       4.26989460      -0.13751938       0.00984185       0.24014408       0.05908331       0.05673379       0.06116992
V       10.86895180       1.39600861       4.45284081      -0.48956981      -0.76480001      -0.55770738      -0.90094149      -1.09325409      -0.88289022
V       10.76839828       4.55098343       1.24101698       0.16002877      -0.56169914       0.52305544      -0.65641207      -1.05338943       0.10272148
V        7.69831514       4.31016064       4.35777664      -0.15720929      -0.02716086       0.15456123      -0.05731777      -0.03963610       0.00605433
V        7.75420618       4.48148966       1.40032434      -0.55542950      -0.46068566       0.26292232      -0.01010321      -0.00296537       0.00805983
V       12.29498386       2.80232859       2.75210500      -0.28499339       0.45366599       0.15812236      -0.83225888       0.74048567       0.62741458
V       13.60951424       4.49379301       1.33082199       0.57068625      -0.87971677       0.10238262       1.35741997      -0.61380976       0.38329828
V       13.76965332       1.31825173       1.35651100      -0.09987881      -0.28539337       0.10084127       0.01220433      -0.04267272       0.05323584
V       12.23376846       2.75471926       5.85112524       0.40802588       0.58628757       0.19605796       0.55973285       1.32074070      -0.17986926
Cr      13.70750141       4.42109823       4.38297749      -0.49697074      -0.60335110      -0.25066359       0.03664082      -0.01488063      -0.00858635
V       13.76062870       1.48481286       4.30351067       0.19050144      -0.65817263       0.02238316       0.27923200      -1.07973719       0.50130737
V       10.84940529       1.36963236       7.31501245      -0.67754629      -0.10541594      -0.41258002      -0.77201211      -0.53613698      -0.07526228
Cr       9.21050549       2.86826706       8.88402939       0.65719973      -0.27156425       0.14251064      -0.00040883      -0.02771037       0.00366800
V        7.69834614       1.34094119       7.29156828      -0.50959902      -0.19928314       0.06368787       0.02475081       0.02461525      -0.07550450
Cr       7.76210070       4.06862164       7.33345461      -0.36268432      -0.22514473       0.56875242      -0.50520527       0.66678780       0.38265949
V        8.35931683       0.76159662       9.86411285      -0.23189620       0.61760264      -0.30347686      -0.04035398      -0.02165415      -0.03767191
V        9.22233582       2.89603567      11.98381615      -0.10284714       0.26637580       0.22787990       0.84302604      -0.31973609      -0.19726920
Cr      10.87049675       1.37605786      10.45261955      -0.05040405      -0.23883826       0.30137553       0.00618776      -0.02809186      -0.03536377
V       10.78104782       4.14944124       7.30134726      -0.48397329       0.27257317      -0.03256060      -0.07268307       0.85819119       0.77958286
V       10.72534752       4.41885042      10.41388607       0.18844055       0.05568121      -0.63059327       0.02665850       0.00312517       0.01172735
V        7.55890703       4.37145519      10.51289272      -0.02267244       0.88240902      -0.46483258       0.67993021       0.99576062      -0.54368556
V       13.76256371       1.36959112       7.42640543      -0.35579214       0.25190929      -0.13503623       0.02088247      -0.02637169      -0.02939213
V       12.24518108       2.84421396       8.97090149       0.21762209       0.32331312      -0.81482883       0.00752664       0.01589495      -0.02065040
V       13.77784729       4.40276766       7.40057898       0.07258204      -0.07280410       0.09094233      -0.01846360      -0.02030232       0.03062866
V       13.72297382       1.34776509      10.45739746       0.05992922      -0.16685900      -0.03411302       0.15570262       0.15695535       0.09122929
V       12.36402607       3.01602006      12.01383686      -0.61321517      -0.32152958      -0.65962762      -1.43283439      -1.33511996      -0.84509504
V       13.68161392       4.41864824      10.51534271      -0.59604501      -0.16360521       0.25432363       0.50368881       0.12927020      -0.57005638
V        9.42637348       5.62500095       5.69216251      -0.29799372      -0.49263579      -0.19565171      -0.02523041       0.03347733       0.01443307
V        9.26138687       5.86850929       2.82263708       0.09238354      -0.12181509      -0.34320362      -0.02633150       0.03852746       0.03999916
V        9.08569241       8.98267555       2.89918947       0.26222051      -0.07077882      -0.22257083       1.04136658      -0.06640410      -0.08205420
V        7.84284163       7.41140652       4.38554096      -0.56914194       0.59930740      -0.80182474      -0.49808598       0.00759955      -0.29200688
Cr       9.27698135       8.88735962       5.74074030       0.07795040       0.20374581       0.47107962      -0.03681776       0.01811340       0.02200071
V       10.78666210       7.44387531       4.28696537      -0.43826408      -0.76782883      -0.76169399       0.01469947      -0.00160746      -0.00399568
V       10.75403214       7.38202286       1.29103661      -0.27787228      -0.04961746       0.30894648      -0.00885500       0.00911017      -0.00804840
V        7.64064884       7.36354685       1.39851487       0.33573548       0.17522303       0.29811776       0.02633122      -0.06117402      -0.00014860
V       12.29747677       5.84951353       5.80007124       0.17061196       0.22140618       0.97428221       0.00780605       0.07705589       0.07277610
V       12.20986366       5.88194275       2.68577385       0.09103692       0.76714046       0.37649079      -0.02040710       0.26177490       1.67850661
V       13.70646763       7.57245827       4.19612789       0.51607196      -0.72008589      -0.17119762       0.99731630      -0.90228033       1.51350331
V       12.40922070       8.82261276       2.86660480      -0.50146688       0.95907444       0.00685448      -1.36662185       1.25413060      -0.72044575
Cr      12.28135109       8.90268421       5.85441208       0.29696050       0.29683461       0.25634358      -0.05594955       0.01580570      -0.00764861
V       13.86655712       7.35401726       1.41780746      -0.63503855       0.12187802      -0.79159094      -0.50565803       0.75554228      -0.80373067
V        8.10919857       6.84534407       6.99556637       0.12257305      -0.22751513      -0.59244185       0.04617713      -0.02621124      -0.02391176
V        9.55355453       8.50694561       8.50134659       0.46666732       0.09671333      -0.16623779      -0.08305587       0.06496585       0.12469338
V        9.27994537       5.74211454       8.90334034       0.78035814       0.02572095       0.19886972      -0.05352505       0.03015484      -0.01483550
Cr      10.73058701       7.54919767      10.43307495      -0.20677149      -0.61166864       0.24192206       0.20217583      -0.82453680       0.34578675
V        7.62064171       7.22727442      10.51385307       0.20765771       0.41897251      -0.62458844       0.00484878       0.02126812      -0.00524505
Cr      10.90509033       7.25356531       7.15263700      -0.20456351       0.54808838       0.16660027      -0.03652290       0.22894798       0.47746181
Cr       9.19708061       5.89421415      11.88040829       0.24553545      -0.30670461       0.44950805       0.02416427       0.03494872      -0.01209135
V        9.09764957       8.67118073      12.06606388       0.46415044       0.63930109       0.45156516       0.81501627       1.37228715      -0.20383063
Cr      13.65419960       7.41062212       7.56736279      -0.25232211       0.52875350      -0.41537832       0.79043818      -0.00802450      -0.86418521
V       12.17867851       8.92807961       8.83124638       0.51000404      -0.47243637       0.48093477       0.88819283      -0.20523608       0.86913460
Cr      12.40019989       5.89661741      12.01241302      -0.28380703       0.61801368      -0.05872632      -1.24620509       0.62311298      -1.11963594
V       12.26418495       5.93481159       8.88935471       0.59312678      -0.46767871       0.58871199      -0.07558831       0.05581392       0.00676749
V       13.89984894       7.45826578      10.53303242      -0.94005271      -0.64754841      -0.91856949      -1.29167271      -0.00808313      -0.34504017
Cr      12.18663692       8.96761608      11.91209030       0.14721479       0.16271158       0.20417447       0.00638826      -0.01635205      -0.00637682
122
Lattice="15.100251138 0.0 0.0 0.0 9.06015068278 0.0 0.0 0.0 12.0802009104" Properties=species:S:1:pos:R:3:force:R:3:forces:R:3 config_type=di-sia_aa parent_id=99999999 generation=9 step=88 variance=0.8765244483947754 loss=0.8765244483947754 energy=-1095.5337617269079 pbc="T T T"
V        1.62775445       1.34512162       4.41636276      -0.36587870       0.14676284       0.26096739       0.00933088       0.03346102      -0.00885323
V        0.04710598       2.94254613       2.90540814      -0.12586468       0.03433973       0.00158128       0.02498947      -0.00334799       0.02892268
V        1.64265847       1.44354439       1.39409959      -0.17162178      -0.48986580      -0.15185871      -0.55993629      -0.80031359       0.58334792
V        0.09362951       2.88767004       5.88928795       0.14078846      -0.38299034       0.37673514      -0.00124350       0.02498228      -0.03464971
V        1.50335348       4.26098204       4.45616817       0.18610748       0.50910618      -0.20399171       0.89024150       1.30245888       0.04471143
V        2.99017596       2.90246677       2.96320200       0.70828261      -0.45906649       0.22706643       0.65760636      -0.18180126      -0.13464469
Cr       3.18569875       2.86696506       5.74353552       0.05657618       0.09440748       0.61230082      -0.21845953      -0.01692072       1.11264336
V        1.54281306       4.44176626       1.42408967      -0.54401163      -0.17960151      -0.14616453       0.01787020      -0.01858241      -0.04330159
Cr       6.19676447       2.79935122       5.84458208      -0.36085173       0.22342113      -0.22283418       0.04722878       0.00426715       0.01822222
V        4.67297888       1.38015282       4.40400553       0.02737985       0.41010477       0.20490755       0.01276997       0.03026813      -0.00142209
V        4.63286448       4.41572380       4.47291231       0.58339221      -0.41310784       0.35790154       0.07597497      -0.33769530      -0.06629246
V        5.83448172       3.30834579       0.30195534      -0.11384728       0.34992072       0.13414051      -0.00018505       0.00200651      -0.03526958
V        4.49796534       1.36564136       1.36093855       0.23210293      -0.18252576       0.81849694       0.71255910       0.05599874       1.04913306
V        6.17743397       2.88395715       2.95422530       0.45117081       0.29384156      -0.04562392       0.00148532      -0.05974002       0.12364468
V        4.43741798       4.58099699       1.52104998       0.74370913      -0.14887329       0.26904106       0.84375238      -0.06337037       0.07224467
V        1.66260707       1.31484294       7.32933903       0.26131946       0.19149700       0.17343776       0.28816220       1.06085825       0.73748577
V        1.63169682       1.43549418      10.40229225      -0.38663856       0.05685454       0.11397554       0.01535045      -0.01415012       0.00901316
Cr       1.63331556       4.41921520      10.37481785       0.13727101       0.13583651      -0.88998385       0.02931091       0.04133710       0.00216234
V        0.18156141       2.93197298       8.94825935       0.31980143      -0.24163957      -0.15673077       0.00282706      -0.00550916      -0.00417824
V        0.14339657       2.77386999      12.05648041      -0.04399461       0.71374445      -0.32658813      -0.29888079       0.88133568      -0.85377377
Cr       3.16340280       2.94733381       8.62720108       0.06444441       0.29233852       0.57134766      -0.07822418      -0.10531163       1.25426447
V        2.94039464       3.02458119      12.11508656      -0.26497230      -0.51969992      -0.18017283       0.19202976       0.08905076      -0.84922618
V        1.69366443       4.42693043       7.33046818      -0.33373474      -0.86551173      -0.01778362      -0.09080133       0.02443280       0.00292875
Cr       6.21920490       2.93068409       8.78625298      -0.21533768       0.38259120      -0.20219532      -0.00830810       0.01403449      -0.01384237
V        4.46422148       1.69266438      10.79888058       0.04606738      -0.13662944      -0.72564571      -0.67791855      -0.10024874      -1.21851254
Cr       5.68800020       0.35128063       9.51381493      -0.49768628      -0.44644425      -0.38881894       0.03200813       0.02358462      -0.04742920
V        4.61746645       4.54932880      10.35204411       0.84579426      -0.11976945      -0.04409547       0.00442557      -0.10680863      -0.02002783
V        7.05141497       2.03013086      11.07935810       0.20467637      -0.14500744       0.22315949       0.09136995       0.01515857       0.05241473
V        4.64425230       4.40270948       7.36805010      -0.10299785       0.12087042       0.03390648       0.01162171      -0.00763334       0.00695355
V        4.64371300       1.24450791       7.42271996      -0.30070613       0.17801101      -0.04141129       0.71084046       1.08260024      -0.27602690
V        1.69983923       7.43213463       1.30972385      -0.57124921       0.12971358       0.14083290      -0.60236371       0.14513879       0.95360965
Cr       1.63556767       7.36224508       4.48677874      -0.04927341       0.67327227      -0.21320187       0.05214046       0.09148447      -0.02816488
V        3.11882877       5.99392939       2.97071147       0.20405911      -0.09021369       0.21004877      -0.01210584       0.01671921       0.01950870
Cr       0.22649816       8.95226574       2.88830543      -0.18632050       0.38292717       0.85834491      -0.00118215       0.04147511      -0.07940103
Cr       0.14349782       5.93647099       5.89261770      -0.14441438       0.10345326       0.09956149      -0.02454546      -0.01335194       0.00777116
V        0.12838644       5.90238523       2.93234801       0.34691665       0.15178821       0.04977573      -0.01250318       0.00913200      -0.00136713
V        3.19962788       8.89573669       6.13577461       0.55589946      -0.01661753      -0.54239576      -0.45929855      -0.20299900      -2.12152457
Cr       3.12734818       5.92573214       5.90387011       0.32578007      -0.09082330       0.10070624      -0.00977132      -0.02961946      -0.00122918
V        3.16981769       8.87297916       2.95490456      -0.10598743       0.13893450      -0.97835700      -0.00452640      -0.02672390       0.01706021
V        0.19195351       9.05286598       6.02010822       0.47736408      -0.29318210      -0.35958845      -0.20469055      -1.00803661      -0.68081653
Cr       4.65949297       7.42751551       4.42482042      -0.04421467      -0.45298984       0.14297403      -0.01790985       0.00249317      -0.00951027
V        6.13248301       5.86512947       5.89569759      -0.29879373      -0.13218156      -0.01322526      -0.02000228      -0.00776611       0.04828635
V        6.29395008       6.06853437       3.05486012      -0.26575646      -0.45900853      -0.40911198      -1.04085326      -0.92699236      -0.79589385
Cr       4.67355156       7.46325779       1.47141552       0.32157921       1.01157008      -0.15940702       0.00988711       0.08214256       0.01178717
Cr       6.08127165       8.77658939       2.79457879       0.08684101       0.49760766       0.75684886       0.01323853       0.82971287       0.71982431
V        6.18658352       8.85353661       5.72704411       0.28334670      -0.47145504       0.42007941       0.02805509       0.04390898      -0.02846667
V        1.68335152       7.37519264       7.49865961       0.22318832       0.07601629       0.24258350       0.00783798      -0.19903408      -0.12376457
V        1.65807259       7.41831303      10.44581699       0.18149125       0.19376652      -0.03438093      -0.00960376       0.00550595      -0.00752202
V        0.17897825       8.95795059      11.95713329       0.38191199       0.68472969       0.59474338       0.00900934      -0.00815292      -0.00048580
V        0.07419749       5.92767572      11.94933128       0.32316610       0.07623081       0.35646339       1.05405033      -0.18576726      -0.17100036
V        0.15375063       5.88637257       8.96872902       0.16851355       0.36920163       0.02375374      -0.00070938       0.02163532      -0.01367291
V        3.11180401       8.95830917       9.00132942      -0.72101319      -0.12608125      -0.00867691      -0.00375130       0.01237740       0.03485731
V        0.26285121       8.98583794       8.93113518      -0.06218527      -0.20815084      -0.08097632      -0.79160058      -0.50349468       0.07439733
Cr       3.14153647       5.88957214       8.93883514       0.33808416       0.28430536      -0.15309352      -0.00500725      -0.02194989      -0.01052891
V        3.10610843       8.94303226      12.00915527       0.53043149      -0.43887057       0.01169525       0.01071698      -0.00561820       0.00223435
V        3.07919741       5.95000553      11.94046307      -0.37731737      -0.18181957       0.00480132      -0.02079119       0.02017233       0.00321820
V        6.11436510       8.86628056      12.06532669      -0.22597368      -0.38196772       0.23595474       0.05082250      -0.04448655       0.09152003
V        6.88397694       8.17277908       8.15458393      -0.47738432       0.42370668       0.10106515      -0.06183030       0.03631932       0.06693198
Cr       6.18473244       5.94851923       8.95197773      -0.42451744      -0.54657170      -0.26559470      -0.28623244      -1.01071525       0.12959920
V        4.55847692       7.42473030      10.63952637       0.14362377       0.08193017      -0.40977597       0.66690487      -0.41812199      -1.05297768
V        4.61909008       7.51978064       7.38339806       0.08852217      -0.14537783       0.23978172      -0.48982596      -1.16882491       0.76259798
Cr       6.10109854       5.99238682      11.98748493      -0.08912998      -0.06012612      -0.02735899       0.04915173      -0.02803531       0.01642327
Cr      10.77973080       1.34994328       1.32790267       0.60077273       0.21397182       0.47973564      -0.03286990       0.00844434      -0.00321592
Cr       7.66547298       1.34541118       4.34480715       0.01397884      -0.10314918      -0.28563602      -0.01496766      -0.01057222      -0.00249247
V        9.27171803       2.85354185       2.86263752      -0.20333036       0.07187285      -0.62561429       0.00570972      -0.00712695       0.00558214
V        9.21451950       2.77137709       5.79507065       0.60718731       0.47678775       0.25825239      -0.01840441      -0.01367042       0.01196435
V        7.63503838       1.34941268       1.49840283      -0.20627133      -0.38632234       0.07867734      -0.00202255      -0.01015599       0.00211137
Cr      10.73342514       4.32114458       4.27642012      -0.13751938       0.00984185       0.24014408       0.02336562       0.04823624       0.04223958
V       10.87397099       1.38521421       4.45042324      -0.48956981      -0.76480001      -0.55770738      -0.97994506      -1.03938961      -0.86599815
V       10.76506996       4.54984140       1.23501885       0.16002877      -0.56169914       0.52305544      -0.64050579      -1.05144095       0.16137578
V        7.70640516       4.31266165       4.36148262      -0.15720929      -0.02716086       0.15456123      -0.07651092      -0.07123919       0.02100030
V        7.75656605       4.48481464       1.40017045      -0.55542950      -0.46068566       0.26292232      -0.02303598      -0.00311932       0.03585781
V       12.28495884       2.80322170       2.75430799      -0.28499339       0.45366599       0.15812236      -0.74598372       0.72750282       0.58112711
V       13.60998821       4.49599838       1.33547938       0.57068625      -0.87971677       0.10238262       1.33215988      -0.65017384       0.28077930
V       13.76722050       1.31658375       1.36372697      -0.09987881      -0.28539337       0.10084127       0.03543904      -0.01637838       0.01951297
V       12.24089050       2.73601818       5.84518099       0.40802588       0.58628757       0.19605796       0.50668472       1.48519075      -0.15074088
Cr      13.70547962       4.41971445       4.38010168      -0.49697074      -0.60335110      -0.25066359       0.05578216      -0.01645237      -0.00200830
V       13.75785828       1.48101974       4.29117441       0.19050144      -0.65817263       0.02238316       0.34290418      -1.06057239       0.61130261
V       10.84231377       1.37001073       7.31004238      -0.67754629      -0.10541594      -0.41258002      -0.75806779      -0.56014079      -0.01795557
Cr       9.21207714       2.86177015       8.88756752       0.65719973      -0.27156425       0.14251064       0.00320253       0.02435624      -0.00894880
V        7.69386339       1.34234846       7.29210329      -0.50959902      -0.19928314       0.06368787       0.05232620       0.01022129      -0.08450644
Cr       7.74169683       4.05672312       7.34968042      -0.36268432      -0.22514473       0.56875242      -0.38442087       0.76176250       0.30430084
V        8.36661243       0.74266410       9.85705090      -0.23189620       0.61760264      -0.30347686      -0.19562612       0.18878847       0.08538391
V        9.22044373       2.90252924      12.00114536      -0.10284714       0.26637580       0.22787990       0.84359407      -0.35568559      -0.29556009
Cr      10.87473011       1.37896872      10.44777584      -0.05040405      -0.23883826       0.30137553      -0.01842795      -0.02142566      -0.01874425
V       10.78670120       4.14671993       7.28798008      -0.48397329       0.27257317      -0.03256060      -0.10951452       0.88392293       0.87598413
V       10.72436047       4.41488218      10.41255665       0.18844055       0.05568121      -0.63059327       0.01357309       0.02612971       0.00755984
V        7.54578400       4.37423325      10.51863575      -0.02267244       0.88240902      -0.46483258       0.80004251       0.99897742      -0.58618551
V       13.76216507       1.36682594       7.42596436      -0.35579214       0.25190929      -0.13503623       0.02403419      -0.01593906      -0.01398295
V       12.24559116       2.84108067       8.96940136       0.21762209       0.32331312      -0.81482883       0.00512127       0.03438158      -0.03552041
V       13.76710320       4.40091944       7.40568352       0.07258204      -0.07280410       0.09094233       0.02341977       0.01235498      -0.00490216
V       13.73880291       1.35850608      10.46722221       0.05992922      -0.16685900      -0.03411302       0.03656407       0.07949127       0.03901097
V       12.36253834       3.02311683      12.01064682      -0.61321517      -0.32152958      -0.65962762      -1.39437473      -1.37137938      -0.84341025
V       13.68402672       4.41468239      10.50908089      -0.59604501      -0.16360521       0.25432363       0.46653640       0.18500583      -0.51037163
V        9.43240929       5.62893486       5.69347525      -0.29799372      -0.49263579      -0.19565171      -0.02949975       0.03203256      -0.01568708
V        9.25984001       5.86800480       2.82131982       0.09238354      -0.12181509      -0.34320362      -0.01555696       0.04706253       0.04126549
V        9.08474636       8.98649120       2.89895320       0.26222051      -0.07077882      -0.22257083       1.02547121      -0.11624342      -0.08807027
V        7.80296659       7.40483618       4.35050154      -0.56914194       0.59930740      -0.80182474      -0.16436920       0.06471390       0.04478003
Cr       9.27489090       8.88626671       5.73973465       0.07795040       0.20374581       0.47107962      -0.03143420       0.01924633       0.01010404
V       10.78267384       7.44178247       4.28608465      -0.43826408      -0.76782883      -0.76169399       0.01161396       0.00539300      -0.00407263
V       10.74886608       7.38167763       1.28714776      -0.27787228      -0.04961746       0.30894648      -0.00384634       0.03205246      -0.01167927
V        7.64172077       7.36230993       1.39702022       0.33573548       0.17522303       0.29811776       0.01780608      -0.03741463      -0.01073358
V       12.30200195       5.86972332       5.81224442       0.17061196       0.22140618       0.97428221      -0.00365497       0.01058404       0.00939446
V       12.21461678       5.87408161       2.66885662       0.09103692       0.76714046       0.37649079      -0.10061845       0.33164477       1.77395236
V       13.70045853       7.58148050       4.16287041       0.51607196      -0.72008589      -0.17119762       1.08037746      -1.05417895       1.76800776
V       12.40678501       8.82459450       2.86795235      -0.50146688       0.95907444       0.00685448      -1.39563489       1.27342200      -0.85546327
Cr      12.27830315       8.90316105       5.85185480       0.29696050       0.29683461       0.25634358      -0.07588110       0.02550532      -0.00232976
V       13.85927486       7.35214710       1.39772570      -0.63503855       0.12187802      -0.79159094      -0.47207171       0.75596476      -0.65240765
V        8.10554600       6.84576130       6.98939991       0.12257305      -0.22751513      -0.59244185       0.07616845      -0.03213428      -0.04404089
V        9.53600883       8.50752163       8.51520824       0.46666732       0.09671333      -0.16623779       0.01096747       0.01794174       0.00035024
V        9.27406788       5.73901081       8.90788555       0.78035814       0.02572095       0.19886972      -0.02686206       0.04715400      -0.04185931
Cr      10.73214436       7.55865955      10.44419098      -0.20677149      -0.61166864       0.24192206       0.19812851      -0.87535399       0.28201360
V        7.61817169       7.22485685      10.51674843       0.20765771       0.41897251      -0.62458844      -0.00137993       0.05235508       0.00955375
Cr      10.90594482       7.30092144       7.17707443      -0.20456351       0.54808838       0.16660027      -0.13221060      -0.03132404       0.31476730
Cr       9.19778538       5.89866829      11.87885475       0.24553545      -0.30670461       0.44950805       0.03180758       0.00848940       0.00737913
V        9.08304882       8.67749882      12.05849838       0.46415044       0.63930109       0.45156516       0.88294357       1.34920263      -0.10456748
Cr      13.66020298       7.41609526       7.56646347      -0.25232211       0.52875350      -0.41537832       0.76414436      -0.05246418      -0.80791605
V       12.17070580       8.92319107       8.82758236       0.51000404      -0.47243637       0.48093477       0.97918916      -0.13413545       0.87863803
Cr      12.38009357       5.89225912      12.00616074      -0.28380703       0.61801368      -0.05872632      -1.12335157       0.65208143      -1.14442670
V       12.25028324       5.94408131       8.88931942       0.59312678      -0.46767871       0.58871199       0.00527549       0.00198664       0.01400315
V       13.89819622       7.45383072      10.53393173      -0.94005271      -0.64754841      -0.91856949      -1.29928100       0.03212146      -0.33901733
Cr      12.19151688       8.97515297      11.91082954       0.14721479       0.16271158       0.20417447       0.00547005      -0.03853837       0.00356967
122
Lattice="15.100251138 0.0 0.0 0.0 9.06015068278 0.0 0.0 0.0 12.0802009104" Properties=species:S:1:pos:R:3:force:R:3:forces:R:3 config_type=di-sia_aa parent_id=99999999 generation=9 step=99 variance=0.9130372405052185 loss=0.9130372405052185 energy=-1095.2305556894296 pbc="T T T"
V        1.62663150       1.34956217       4.41482306      -0.36587870       0.14676284       0.26096739       0.00558247       0.03263710       0.00555883
V        0.04730622       2.94540429       2.90626431      -0.12586468       0.03433973       0.00158128       0.01653254      -0.00830308       0.02141329
V        1.64213133       1.44695222       1.39640510      -0.17162178      -0.48986580      -0.15185871      -0.54350865      -0.79946125       0.59217596
V        0.08953431       2.88209009       5.88612032       0.14078846      -0.38299034       0.37673514       0.01163409       0.04601834       0.00005834
V        1.49620724       4.26521778       4.46834564       0.18610748       0.50910618      -0.20399171       0.90389824       1.32323921      -0.05675316
V        2.98462462       2.92881298       2.97696638       0.70828261      -0.45906649       0.22706643       0.70087802      -0.36638397      -0.25982001
Cr       3.17061782       2.88777065       5.73861933       0.05657618       0.09440748       0.61230082      -0.11611768      -0.18367521       1.13735890
V        1.54627907       4.44524813       1.41834629      -0.54401163      -0.17960151      -0.14616453      -0.00524511      -0.00367703      -0.00162001
Cr       6.19680500       2.79517651       5.83809853      -0.36085173       0.22342113      -0.22283418       0.03241716       0.00471074       0.01920062
V        4.67371416       1.37889946       4.40666676       0.02737985       0.41010477       0.20490755       0.00627857       0.02701337      -0.01107741
V        4.66912889       4.35839796       4.45309687       0.58339221      -0.41310784       0.35790154      -0.08806689       0.03877955       0.04259906
V        5.83512640       3.30300355       0.28824633      -0.11384728       0.34992072       0.13414051       0.02414402       0.04569389       0.06999618
V        4.49187803       1.36618304       1.36429763       0.23210293      -0.18252576       0.81849694       0.71750200       0.06812324       1.08086872
V        6.18178082       2.86528134       2.95473075       0.45117081       0.29384156      -0.04562392       0.02354480       0.01541498       0.06251830
V        4.44396591       4.58901787       1.52670050       0.74370913      -0.14887329       0.26904106       0.84361863      -0.12896425       0.00444286
V        1.66346371       1.31447577       7.32173824       0.26131946       0.19149700       0.17343776       0.26528889       1.11274719       0.81476158
V        1.63293552       1.43410468      10.40714455      -0.38663856       0.05685454       0.11397554       0.01768998      -0.00112749      -0.00871363
Cr       1.63863730       4.42211103      10.37654877       0.13727101       0.13583651      -0.88998385       0.00089593       0.02140392      -0.00693365
V        0.17818034       2.93093920       8.94903851       0.31980143      -0.24163957      -0.15673077       0.02260519       0.00245749      -0.00530248
V        0.13978186       2.76776862      12.06121635      -0.04399461       0.71374445      -0.32658813      -0.26772785       0.92789572      -0.84914178
Cr       3.15671372       2.97063398       8.61432743       0.06444441       0.29233852       0.57134766       0.00661223      -0.26053828       1.30603397
V        2.94326162       3.01934552      12.11898518      -0.26497230      -0.51969992      -0.18017283       0.15333113       0.15187901      -0.83786821
V        1.69740462       4.42557001       7.33311176      -0.33373474      -0.86551173      -0.01778362      -0.14998487       0.05284747      -0.03152293
Cr       6.22548199       2.93294644       8.77653980      -0.21533768       0.38259120      -0.20219532      -0.02554747      -0.00248823       0.03850411
V        4.46786213       1.69928873      10.81092930       0.04606738      -0.13662944      -0.72564571      -0.71060741      -0.13046111      -1.29280281
Cr       5.68552351       0.35298547       9.51406956      -0.49768628      -0.44644425      -0.38881894       0.03088576       0.04589581      -0.05363441
V        4.62205935       4.53070021      10.33732224       0.84579426      -0.11976945      -0.04409547      -0.01409928       0.03741650       0.02565673
V        7.06174660       2.02246714      11.07813740       0.20467637      -0.14500744       0.22315949       0.04969317       0.05027480       0.04008706
V        4.64745045       4.41044950       7.35483456      -0.10299785       0.12087042       0.03390648      -0.02624064      -0.03013964       0.03603414
V        4.64492130       1.23983073       7.41106939      -0.30070613       0.17801101      -0.04141129       0.73584425       1.19489479      -0.17215681
V        1.69483685       7.43881035       1.31179261      -0.57124921       0.12971358       0.14083290      -0.55848360       0.11629814       0.94765317
Cr       1.63652194       7.36156464       4.48665380      -0.04927341       0.67327227      -0.21320187       0.07269554       0.10057811      -0.03196445
V        3.12065721       5.99264240       2.97643065       0.20405911      -0.09021369       0.21004877       0.00129511       0.01022395      -0.00022391
Cr       0.23864335       8.95158863       2.87856483      -0.18632050       0.38292717       0.85834491      -0.07262602       0.05825658      -0.02926794
Cr       0.14422935       5.92733288       5.89409208      -0.14441438       0.10345326       0.09956149      -0.04567612       0.02575298      -0.00254995
V        0.12961806       5.90494061       2.93164301       0.34691665       0.15178821       0.04977573      -0.01550907       0.00535521      -0.00495989
V        3.20687938       8.90801048       6.15468121       0.55589946      -0.01661753      -0.54239576      -0.52455366      -0.30260044      -2.30247021
Cr       3.13397455       5.92722797       5.89692545       0.32578007      -0.09082330       0.10070624      -0.01926508      -0.03338547       0.00539831
V        3.16842580       8.87212467       2.96039653      -0.10598743       0.13893450      -0.97835700      -0.00445541      -0.01402633       0.00504936
V        0.19801593       9.05524921       6.02720547       0.47736408      -0.29318210      -0.35958845      -0.24409780      -1.04756057      -0.73812103
Cr       4.65132189       7.42167330       4.42786169      -0.04421467      -0.45298984       0.14297403       0.01877955       0.01908947       0.01012087
V        6.11833572       5.86267567       5.89707279      -0.29879373      -0.13218156      -0.01322526       0.04158542       0.00324234       0.01387703
V        6.30091524       6.07516289       3.05441475      -0.26575646      -0.45900853      -0.40911198      -1.09075260      -0.98014307      -0.77932370
Cr       4.67246771       7.46466827       1.47252297       0.32157921       1.01157008      -0.15940702       0.00990476       0.07441137       0.02700819
Cr       6.08259916       8.78978348       2.79465294       0.08684101       0.49760766       0.75684886      -0.00318874       0.74724960       0.72868770
V        6.18428755       8.86373711       5.73550940       0.28334670      -0.47145504       0.42007941       0.01866412      -0.01334028      -0.07877778
V        1.68864930       7.35447073       7.48085642       0.22318832       0.07601629       0.24258350      -0.00145172      -0.03582533       0.01962319
V        1.65952516       7.41356325      10.44350529       0.18149125       0.19376652      -0.03438093      -0.00880581       0.02868769       0.00646234
V        0.18015838       8.95925522      11.95598125       0.38191199       0.68472969       0.59474338      -0.00177622      -0.03017649       0.00362613
V        0.07102327       5.93403196      11.95873451       0.32316610       0.07623081       0.35646339       1.09570003      -0.22394583      -0.21476166
V        0.15308407       5.88554001       8.97078514       0.16851355       0.36920163       0.02375374       0.00209851       0.02328827      -0.01386821
V        3.11141348       8.95756912       9.00616837      -0.72101319      -0.12608125      -0.00867691      -0.00758720       0.01986054       0.02808371
V        0.26990870       8.98934174       8.93086624      -0.06218527      -0.20815084      -0.08097632      -0.80983579      -0.55432218       0.07806982
Cr       3.14185309       5.88210869       8.93120480       0.33808416       0.28430536      -0.15309352       0.02798507       0.04339109       0.03288728
V        3.10437822       8.94320965      12.00770664       0.53043149      -0.43887057       0.01169525       0.01265701      -0.00394012       0.02433105
V        3.08071661       5.95128393      11.93996811      -0.37731737      -0.18181957       0.00480132      -0.00118361       0.01031569      -0.00921636
V        6.10803843       8.86843395      12.06723213      -0.22597368      -0.38196772       0.23595474       0.06762568      -0.04345408       0.09605320
V        6.88261938       8.16789818       8.15715790      -0.47738432       0.42370668       0.10106515      -0.04239354       0.07694465       0.06454434
Cr       6.19318962       5.95890093       8.95303249      -0.42451744      -0.54657170      -0.26559470      -0.31921187      -1.08732498       0.14046249
V        4.56671238       7.43149042      10.64321804       0.14362377       0.08193017      -0.40977597       0.62326258      -0.49073553      -1.06829298
V        4.62721539       7.53692055       7.39036274       0.08852217      -0.14537783       0.23978172      -0.55995548      -1.31905746       0.74132752
Cr       6.10295916       5.99288893      11.98768711      -0.08912998      -0.06012612      -0.02735899       0.05266974      -0.01641728       0.01355553
Cr      10.77790928       1.34995055       1.32687891       0.60077273       0.21397182       0.47973564      -0.01225722       0.00087978       0.01341757
Cr       7.67395735       1.34513223       4.34792233       0.01397884      -0.10314918      -0.28563602      -0.04878327      -0.01674290      -0.02131457
V        9.27592182       2.85481501       2.86542463      -0.20333036       0.07187285      -0.62561429       0.00748182      -0.01013276      -0.00498771
V        9.21719933       2.76823616       5.79186201       0.60718731       0.47678775       0.25825239      -0.01490592      -0.01818751       0.03171908
V        7.63309288       1.34563017       1.49654329      -0.20627133      -0.38632234       0.07867734      -0.01718356       0.01193778       0.01059205
Cr      10.73333359       4.32642698       4.28034782      -0.13751938       0.00984185       0.24014408       0.03604309       0.02610260       0.02449835
V       10.86545563       1.37232983       4.44876862      -0.48956981      -0.76480001      -0.55770738      -0.92422676      -0.96857703      -0.83600461
V       10.76864910       4.54666805       1.22631156       0.16002877      -0.56169914       0.52305544      -0.70010769      -1.05992782       0.23831889
V        7.71059561       4.31059361       4.36690044      -0.15720929      -0.02716086       0.15456123      -0.09949441      -0.04291970      -0.00734836
V        7.75555658       4.48584509       1.40324378      -0.55542950      -0.46068566       0.26292232      -0.01891968      -0.00535159       0.01665578
V       12.28132820       2.80701113       2.76351142      -0.28499339       0.45366599       0.15812236      -0.72971982       0.69670248       0.55203998
V       13.60657501       4.50591564       1.34237397       0.57068625      -0.87971677       0.10238262       1.42177033      -0.77645350       0.23210102
V       13.76631832       1.31615853       1.36493838      -0.09987881      -0.28539337       0.10084127       0.04579453      -0.02510696       0.04169370
V       12.24205208       2.72457123       5.85147762       0.40802588       0.58628757       0.19605796       0.46919984       1.49541831      -0.21788895
Cr      13.70482731       4.41556311       4.37922859      -0.49697074      -0.60335110      -0.25066359       0.05312001      -0.01065212       0.00004721
V       13.76047325       1.48208725       4.29290199       0.19050144      -0.65817263       0.02238316       0.29967389      -1.07335174       0.60179174
V       10.82559967       1.35084665       7.31916094      -0.67754629      -0.10541594      -0.41258002      -0.66479588      -0.42087424      -0.11619985
Cr       9.21946239       2.85662413       8.89144611       0.65719973      -0.27156425       0.14251064      -0.00759688       0.04718463      -0.01146393
V        7.70164251       1.33867931       7.28807306      -0.50959902      -0.19928314       0.06368787       0.01340538      -0.02130873      -0.06869607
Cr       7.72365475       4.02850151       7.36351156      -0.36268432      -0.22514473       0.56875242      -0.28090087       0.96285343       0.21079609
V        8.36202431       0.73971975       9.85458088      -0.23189620       0.61760264      -0.30347686      -0.19077209       0.21790272       0.08024267
V        9.21855736       2.89258575      12.01049709      -0.10284714       0.26637580       0.22787990       0.86427343      -0.28535932      -0.33939251
Cr      10.86815453       1.38623428      10.44724655      -0.05040405      -0.23883826       0.30137553       0.01896900      -0.05368670      -0.02483882
V       10.78972435       4.13250065       7.27087259      -0.48397329       0.27257317      -0.03256060      -0.14154072       0.96994108       0.99841058
V       10.72102165       4.41632271      10.41130924       0.18844055       0.05568121      -0.63059327       0.01801804      -0.00567795      -0.00895379
V        7.54553890       4.37465429      10.51938438      -0.02267244       0.88240902      -0.46483258       0.81131101       1.01574230      -0.58277571
V       13.76113129       1.36271536       7.42510796      -0.35579214       0.25190929      -0.13503623       0.03048099      -0.01384472      -0.01507657
V       12.24981499       2.84252119       8.95740509       0.21762209       0.32331312      -0.81482883      -0.03223732      -0.00230324       0.02629562
V       13.76537418       4.40976191       7.39591932       0.07258204      -0.07280410       0.09094233       0.02379414      -0.03777873       0.03851297
V       13.74352264       1.36547303      10.47173595       0.05992922      -0.16685900      -0.03411302      -0.01720178       0.00787768      -0.00454185
V       12.37368011       3.03411341      12.01859856      -0.61321517      -0.32152958      -0.65962762      -1.45911384      -1.48848701      -0.90935993
V       13.68286324       4.40959978      10.51012802      -0.59604501      -0.16360521       0.25432363       0.49537772       0.22187030      -0.53164393
V        9.43206310       5.63503408       5.68776941      -0.29799372      -0.49263579      -0.19565171      -0.00682349      -0.01606510       0.03540999
V        9.26404285       5.87586260       2.82248998       0.09238354      -0.12181509      -0.34320362      -0.04197656       0.02719519       0.04352194
V        9.07914162       8.98697376       2.88383412       0.26222051      -0.07077882      -0.22257083       1.07031107      -0.12636301       0.03479601
V        7.78099632       7.42309856       4.35629225      -0.56914194       0.59930740      -0.80182474      -0.01750268      -0.02779636      -0.01221561
Cr       9.26866531       8.89424515       5.74218607       0.07795040       0.20374581       0.47107962      -0.01966417      -0.00582236      -0.00017652
V       10.78338051       7.44587660       4.29256535      -0.43826408      -0.76782883      -0.76169399      -0.00570944      -0.01512206      -0.02085125
V       10.74525928       7.38606691       1.28257906      -0.27787228      -0.04961746       0.30894648       0.01182573      -0.01755835       0.00270881
V        7.64206362       7.36569309       1.39402616       0.33573548       0.17522303       0.29811776       0.00159005      -0.05087653       0.00767808
V       12.29811859       5.86634159       5.81538343       0.17061196       0.22140618       0.97428221      -0.00504288       0.04386111       0.01852312
V       12.21602345       5.86166620       2.65396857       0.09103692       0.76714046       0.37649079      -0.15784997       0.46988881       1.94121218
V       13.69905472       7.57797384       4.15367413       0.51607196      -0.72008589      -0.17119762       1.08905637      -1.05459452       1.82755375
V       12.40875626       8.82141113       2.87393880      -0.50146688       0.95907444       0.00685448      -1.42277694       1.29407120      -0.89333171
Cr      12.26947975       8.90249920       5.85716391       0.29696050       0.29683461       0.25634358      -0.05015664       0.00122981      -0.02562191
V       13.85514450       7.34954214       1.39985478      -0.63503855       0.12187802      -0.79159094      -0.44133860       0.78518766      -0.67905802
V        8.10464764       6.85039425       6.98214579       0.12257305      -0.22751513      -0.59244185       0.06103872      -0.08273929      -0.04110200
V        9.52645111       8.51473522       8.51760483       0.46666732       0.09671333      -0.16623779      -0.06177995      -0.00184397       0.07733716
V        9.27354336       5.74517393       8.90082932       0.78035814       0.02572095       0.19886972      -0.05496575       0.01388396       0.00058755
Cr      10.72221088       7.56151390      10.45881653      -0.20677149      -0.61166864       0.24192206       0.26639739      -0.91730589       0.15219501
V        7.61948872       7.24260473      10.52113438       0.20765771       0.41897251      -0.62458844      -0.04901350      -0.08668266       0.00212025
Cr      10.88440323       7.31065989       7.22001314      -0.20456351       0.54808838       0.16660027       0.03192645      -0.12217171       0.05350041
Cr       9.19445992       5.89404917      11.87961960       0.24553545      -0.30670461       0.44950805       0.03020293       0.02403228      -0.00605483
V        9.07783699       8.67555523      12.04839802       0.46415044       0.63930109       0.45156516       0.88675547       1.40634227      -0.02007305
Cr      13.66996384       7.41785812       7.56536388      -0.25232211       0.52875350      -0.41537832       0.68229246      -0.08462610      -0.79714978
V       12.16619968       8.91594315       8.81299686       0.51000404      -0.47243637       0.48093477       1.03734887      -0.10816552       1.00330949
Cr      12.37372208       5.87339401      11.99625969      -0.28380703       0.61801368      -0.05872632      -1.11762404       0.79534137      -1.12096989
V       12.24585629       5.94885778       8.89624405       0.59312678      -0.46767871       0.58871199       0.03669605      -0.04877396      -0.01562697
V       13.89876080       7.44396877      10.54742432      -0.94005271      -0.64754841      -0.91856949      -1.30956948       0.09185886      -0.42739695
Cr      12.19947529       8.96279907      11.90941906       0.14721479       0.16271158       0.20417447      -0.02844828       0.02511163       0.01958383
